 VARIABLES = X,Y,DU1,DU2,U1,U2,S11,S22,S33,S12
 ZONE, T="0.1000D+01" F=FEPOINT, I= 2593 J= 4984
   0.3717598085E-01  -0.8226475681E-01   0.2910112451E-02   0.4987585892E-03   0.0000000000E+00   0.0000000000E+00  -0.3315588763E-01   0.6538883654E-02   0.0000000000E+00   0.3927829628E-01
   0.2014186094E-01  -0.7201730216E-01   0.2817802637E-02   0.3354350407E-03   0.0000000000E+00   0.0000000000E+00  -0.6183622897E-02  -0.1900195786E-01   0.0000000000E+00   0.5088860554E-01
   0.2307313909E-01  -0.9963901336E-01   0.3073139489E-02   0.3609876385E-03   0.0000000000E+00   0.0000000000E+00  -0.3339484781E-01   0.2785954736E-02   0.0000000000E+00   0.9697891553E-02
   0.2866007659E-01  -0.7713962200E-01   0.2865112294E-02   0.4185079960E-03   0.0000000000E+00   0.0000000000E+00  -0.1405960619E-01  -0.2721765726E-02   0.0000000000E+00   0.4400956131E-01
   0.2160709970E-01  -0.8582687008E-01   0.2945071699E-02   0.3494955225E-03   0.0000000000E+00   0.0000000000E+00  -0.1981204639E-01  -0.6860033697E-02   0.0000000000E+00   0.3345493367E-01
   0.3012356309E-01  -0.9095190757E-01   0.2990629088E-02   0.4298509330E-03   0.0000000000E+00   0.0000000000E+00  -0.4181155869E-01   0.1140380747E-02   0.0000000000E+00   0.2173160570E-01
  -0.8429689879E-02  -0.4559070133E-01   0.4483875011E-03   0.2345267728E-03   0.0000000000E+00   0.0000000000E+00   0.1365311283E-02  -0.9530246919E-01   0.0000000000E+00  -0.2987738143E-01
  -0.6589781049E-02  -0.3600953327E-01   0.5614273011E-03   0.2043005261E-03   0.0000000000E+00   0.0000000000E+00   0.1810993909E-02  -0.1192153664E+00   0.0000000000E+00  -0.1871621502E-01
  -0.1517022064E-01  -0.3929599614E-01   0.5173977624E-03   0.3106607566E-03   0.0000000000E+00   0.0000000000E+00   0.2244310251E-01   0.3839871605E-02   0.0000000000E+00   0.3552893788E-04
  -0.7511454909E-02  -0.4079957714E-01   0.5031877209E-03   0.2199519623E-03   0.0000000000E+00   0.0000000000E+00   0.1087266692E-02  -0.1083007234E+00   0.0000000000E+00  -0.2467349423E-01
  -0.1088054058E-01  -0.3765147583E-01   0.5388730248E-03   0.2587695690E-03   0.0000000000E+00   0.0000000000E+00   0.1329707382E-01  -0.5744326307E-01   0.0000000000E+00  -0.8521386519E-02
  -0.1180077715E-01  -0.4244437704E-01   0.4820712531E-03   0.2715672640E-03   0.0000000000E+00   0.0000000000E+00   0.1182707665E-01  -0.4620943111E-01   0.0000000000E+00  -0.1489271464E-01
  -0.1387534162E+00  -0.6478016440E-01   0.1171058453E-03   0.1099299703E-02   0.0000000000E+00   0.0000000000E+00   0.2002539996E+00  -0.1573958357E-01   0.0000000000E+00   0.3653805775E-01
  -0.1296325998E+00  -0.8213494036E-01   0.7591422007E-04   0.1086361042E-02   0.0000000000E+00   0.0000000000E+00   0.9033995851E-01  -0.4103082650E-02   0.0000000000E+00   0.2984488050E-01
  -0.1193284727E+00  -0.6628499927E-01   0.1470782634E-03   0.1044563932E-02   0.0000000000E+00   0.0000000000E+00   0.1829672169E+00  -0.1279894332E-01   0.0000000000E+00   0.5094280121E-01
  -0.1341909292E+00  -0.7345582926E-01   0.9858875680E-04   0.1094553541E-02   0.0000000000E+00   0.0000000000E+00   0.1448927649E+00  -0.1017957422E-01   0.0000000000E+00   0.3377450382E-01
  -0.1244831264E+00  -0.7420851176E-01   0.1089096282E-03   0.1066924242E-02   0.0000000000E+00   0.0000000000E+00   0.1360676418E+00  -0.8874773849E-02   0.0000000000E+00   0.3998344838E-01
  -0.1290403282E+00  -0.6553024293E-01   0.1327118352E-03   0.1074266969E-02   0.0000000000E+00   0.0000000000E+00   0.1924140203E+00  -0.1403830766E-01   0.0000000000E+00   0.4378254776E-01
  -0.1816587749E+00  -0.7192509990E-01   0.2956410797E-04   0.1170713499E-02   0.0000000000E+00   0.0000000000E+00   0.1735964956E+00  -0.6760331681E-02   0.0000000000E+00   0.8351456645E-02
  -0.1818486448E+00  -0.5003248858E-01   0.4664115421E-04   0.1149133222E-02   0.0000000000E+00   0.0000000000E+00   0.2759376155E+00  -0.1814990443E-01   0.0000000000E+00   0.8707937719E-02
  -0.2000000030E+00  -0.5883463348E-01   0.0000000000E+00   0.1165365223E-02   0.0000000000E+00   0.0000000000E+00   0.2344804768E+00  -0.1239758192E-01   0.0000000000E+00   0.3856066149E-03
  -0.1817537315E+00  -0.6097741052E-01   0.3808047433E-04   0.1161307078E-02   0.0000000000E+00   0.0000000000E+00   0.2247841840E+00  -0.1264569240E-01   0.0000000000E+00   0.8869005132E-02
  -0.1909261237E+00  -0.5443174521E-01   0.2152830454E-04   0.1159063192E-02   0.0000000000E+00   0.0000000000E+00   0.2549799006E+00  -0.1525908486E-01   0.0000000000E+00   0.4438662730E-02
  -0.1908267847E+00  -0.6537782604E-01   0.1739328906E-04   0.1170081863E-02   0.0000000000E+00   0.0000000000E+00   0.2041920171E+00  -0.9620867504E-02   0.0000000000E+00   0.3985396413E-02
  -0.5631016596E-03  -0.5174084815E-02   0.1138149830E-02   0.7740010460E-04   0.0000000000E+00   0.0000000000E+00   0.2220195131E-01   0.1982477452E+00   0.0000000000E+00   0.1181743578E+00
   0.1171731232E-02  -0.4324395771E-02   0.1171731232E-02   0.1643448901E-04   0.0000000000E+00   0.0000000000E+00  -0.1669528553E-01  -0.4068388612E+00   0.0000000000E+00  -0.2888619864E-01
  -0.1458876945E-03  -0.3468495558E-02   0.1203602795E-02   0.6892881153E-04   0.0000000000E+00   0.0000000000E+00   0.4421216500E-01   0.4433923030E+00   0.0000000000E+00   0.2047073675E+00
   0.3035709644E-03  -0.4747633427E-02   0.1154196708E-02   0.4852416288E-04   0.0000000000E+00   0.0000000000E+00   0.1874458770E-01  -0.8324073077E-01   0.0000000000E+00   0.5082769361E-01
   0.5119705460E-03  -0.3897530557E-02   0.1186715789E-02   0.4159699346E-04   0.0000000000E+00   0.0000000000E+00   0.2036342951E-01   0.8203965899E-02   0.0000000000E+00   0.7469285100E-01
  -0.3561422424E-03  -0.4321405604E-02   0.1169228748E-02   0.7304927563E-04   0.0000000000E+00   0.0000000000E+00   0.1377287089E-01   0.2719487498E+00   0.0000000000E+00   0.1419300814E+00
  -0.1836078392E+00   0.6751893964E-01   0.1314947642E-03   0.8637806380E-03   0.0000000000E+00   0.0000000000E+00   0.8852930883E+00  -0.6721491354E-02   0.0000000000E+00  -0.5823845892E-02
  -0.1727429864E+00   0.8257555468E-01   0.2397956081E-03   0.7952327791E-03   0.0000000000E+00   0.0000000000E+00   0.9719284008E+00  -0.2417243935E-02   0.0000000000E+00  -0.6456002109E-02
  -0.2000000030E+00   0.8082255352E-01   0.0000000000E+00   0.8225553240E-03   0.0000000000E+00   0.0000000000E+00   0.9651339105E+00  -0.1970863202E-02   0.0000000000E+00  -0.1973640745E-03
  -0.1781775847E+00   0.7504863486E-01   0.1834733420E-03   0.8308981649E-03   0.0000000000E+00   0.0000000000E+00   0.9282344773E+00  -0.4888657320E-02   0.0000000000E+00  -0.6360461701E-02
  -0.1863720385E+00   0.8170420675E-01   0.1193615135E-03   0.8140429534E-03   0.0000000000E+00   0.0000000000E+00   0.9695187566E+00  -0.2091116522E-02   0.0000000000E+00  -0.3218126267E-02
  -0.1918010827E+00   0.7417306410E-01   0.6859325544E-04   0.8454855032E-03   0.0000000000E+00   0.0000000000E+00   0.9250809262E+00  -0.4273722251E-02   0.0000000000E+00  -0.2385852249E-02
  -0.1505801426E+00   0.8277502935E-01   0.4341253537E-03   0.7472811494E-03   0.0000000000E+00   0.0000000000E+00   0.9630115354E+00  -0.4479747234E-02   0.0000000000E+00  -0.1513694516E-01
  -0.1294398744E+00   0.8366146370E-01   0.6200236173E-03   0.6737976029E-03   0.0000000000E+00   0.0000000000E+00   0.9488572636E+00  -0.7284351979E-02   0.0000000000E+00  -0.2848299940E-01
  -0.1394122279E+00   0.1006428786E+00   0.5877730686E-03   0.6428776100E-03   0.0000000000E+00   0.0000000000E+00   0.1053708593E+01   0.9655835647E-03   0.0000000000E+00  -0.4274682067E-03
  -0.1400098243E+00   0.8322124817E-01   0.5272587436E-03   0.7135409731E-03   0.0000000000E+00   0.0000000000E+00   0.9579183765E+00  -0.4918295018E-02   0.0000000000E+00  -0.2117286719E-01
  -0.1344243898E+00   0.9215362975E-01   0.6055522291E-03   0.6597996477E-03   0.0000000000E+00   0.0000000000E+00   0.1000117111E+01  -0.2807567835E-02   0.0000000000E+00  -0.1371243728E-01
  -0.1449989328E+00   0.9171038525E-01   0.5081941594E-03   0.6965066527E-03   0.0000000000E+00   0.0000000000E+00   0.1007733340E+01  -0.2319657854E-02   0.0000000000E+00  -0.8811096376E-02
   0.6898658870E-03   0.5996636475E-03   0.1461681659E-02   0.6491108950E-04   0.0000000000E+00   0.0000000000E+00   0.7163380586E+01   0.2443340283E+01   0.0000000000E+00  -0.4208898651E+00
   0.1114316916E-02   0.5192605722E-03   0.1482865881E-02   0.4622341422E-04   0.0000000000E+00   0.0000000000E+00   0.8544129873E+01   0.5109061179E+01   0.0000000000E+00  -0.1653599198E+01
   0.1171325227E-02   0.9436253088E-03   0.1489681231E-02   0.5318453576E-04   0.0000000000E+00   0.0000000000E+00   0.5831569965E+01   0.4847903155E+01   0.0000000000E+00  -0.9079192050E+00
   0.9018226820E-03   0.5596408767E-03   0.1472005021E-02   0.5574600369E-04   0.0000000000E+00   0.0000000000E+00   0.7849507601E+01   0.3598760486E+01   0.0000000000E+00  -0.1108489236E+01
   0.1143623768E-02   0.7310139231E-03   0.1487076267E-02   0.4927497206E-04   0.0000000000E+00   0.0000000000E+00   0.7132105450E+01   0.5368258018E+01   0.0000000000E+00  -0.1403347954E+01
   0.9333907031E-03   0.7687648832E-03   0.1478476576E-02   0.5616818825E-04   0.0000000000E+00   0.0000000000E+00   0.6697265818E+01   0.3889325055E+01   0.0000000000E+00  -0.1017772399E+01
  -0.4076285356E-03   0.1125218599E-02   0.1431156824E-02   0.1002614393E-03   0.0000000000E+00   0.0000000000E+00   0.4686620191E+01   0.1200533882E+01   0.0000000000E+00   0.6344080463E-01
   0.2548641310E-03   0.8984781093E-03   0.1450823061E-02   0.8042403426E-04   0.0000000000E+00   0.0000000000E+00   0.5732185828E+01   0.1892295120E+01   0.0000000000E+00  -0.2964087265E+00
   0.3717977872E-03   0.1436091277E-02   0.1467422077E-02   0.7726171715E-04   0.0000000000E+00   0.0000000000E+00   0.5073105724E+01   0.2718028270E+01   0.0000000000E+00  -0.9186633725E+00
  -0.7689047890E-04   0.1012289522E-02   0.1440481731E-02   0.9078390168E-04   0.0000000000E+00   0.0000000000E+00   0.5068279247E+01   0.1443838539E+01   0.0000000000E+00  -0.7189183727E-02
   0.3145403359E-03   0.1166549244E-02   0.1460331946E-02   0.7810742381E-04   0.0000000000E+00   0.0000000000E+00   0.5510738519E+01   0.2393617583E+01   0.0000000000E+00  -0.7164774082E+00
  -0.1710388862E-04   0.1279919424E-02   0.1450101001E-02   0.8802606439E-04   0.0000000000E+00   0.0000000000E+00   0.5080107136E+01   0.1950506207E+01   0.0000000000E+00  -0.5044027779E+00
   0.1434028876E-02   0.1861068884E-02   0.1498514000E-02   0.6892031447E-04   0.0000000000E+00   0.0000000000E+00   0.4012433902E+01   0.3596181749E+01   0.0000000000E+00  -0.7176932695E-01
   0.1446050395E-02   0.1356978157E-02   0.1498598074E-02   0.5970331688E-04   0.0000000000E+00   0.0000000000E+00   0.4694416114E+01   0.4293127412E+01   0.0000000000E+00  -0.9679998339E-01
   0.1897451031E-02   0.1493648400E-02   0.1509946451E-02   0.6436545989E-04   0.0000000000E+00   0.0000000000E+00   0.4590079532E+01   0.3888154601E+01   0.0000000000E+00   0.5742654399E+00
   0.1440044050E-02   0.1609229408E-02   0.1498560451E-02   0.6451775811E-04   0.0000000000E+00   0.0000000000E+00   0.4292202370E+01   0.3855225407E+01   0.0000000000E+00  -0.7883019859E-01
   0.1671782788E-02   0.1424706161E-02   0.1504304330E-02   0.6142733092E-04   0.0000000000E+00   0.0000000000E+00   0.4647189119E+01   0.4127224363E+01   0.0000000000E+00   0.2866789013E+00
   0.1665348382E-02   0.1676723771E-02   0.1503838654E-02   0.6600801091E-04   0.0000000000E+00   0.0000000000E+00   0.4299639145E+01   0.3819312419E+01   0.0000000000E+00   0.2117092296E+00
   0.2118412062E-02   0.2099301799E-02   0.1513349131E-02   0.7566566926E-04   0.0000000000E+00   0.0000000000E+00   0.3887999683E+01   0.3188300059E+01   0.0000000000E+00   0.5313150250E+00
   0.1776299812E-02   0.1979362060E-02   0.1506010909E-02   0.7146977010E-04   0.0000000000E+00   0.0000000000E+00   0.3956135084E+01   0.3434389572E+01   0.0000000000E+00   0.2760155373E+00
   0.2008021330E-02   0.1796755479E-02   0.1511737574E-02   0.7029599946E-04   0.0000000000E+00   0.0000000000E+00   0.4172418801E+01   0.3436570812E+01   0.0000000000E+00   0.5098227801E+00
   0.2487941292E-02   0.1153159688E-03   0.1573069599E-02   0.7575309842E-04   0.0000000000E+00   0.0000000000E+00   0.5666474659E+01   0.1409966470E+01   0.0000000000E+00  -0.2087351034E+01
   0.2104266617E-02   0.2631226901E-03   0.1541355695E-02   0.5642540907E-04   0.0000000000E+00   0.0000000000E+00   0.8710373488E+01   0.2460130927E+01   0.0000000000E+00  -0.6319976322E+00
   0.2148272293E-02  -0.1104361890E-03   0.1573479034E-02   0.6045908797E-04   0.0000000000E+00   0.0000000000E+00   0.5493856562E+01   0.2136726858E+01   0.0000000000E+00  -0.3873195067E+01
   0.2297120532E-02   0.1900805576E-03   0.1558229225E-02   0.6695048763E-04   0.0000000000E+00   0.0000000000E+00   0.6939160168E+01   0.1558859068E+01   0.0000000000E+00  -0.1566162384E+01
   0.2157925490E-02   0.7996654345E-04   0.1558561846E-02   0.6110538225E-04   0.0000000000E+00   0.0000000000E+00   0.6490523027E+01   0.1796359736E+01   0.0000000000E+00  -0.2410737457E+01
   0.2317395923E-02   0.3034234296E-05   0.1572563476E-02   0.6870043570E-04   0.0000000000E+00   0.0000000000E+00   0.6488776543E+01   0.2463005383E+01   0.0000000000E+00  -0.2344327303E+01
   0.3579542663E-02   0.2693599219E-03   0.1607031483E-02   0.1108915009E-03   0.0000000000E+00   0.0000000000E+00   0.3945054095E+01   0.9300723056E+00   0.0000000000E+00  -0.1271127191E+01
   0.2870641414E-02   0.4553857338E-03   0.1572017674E-02   0.8768584479E-04   0.0000000000E+00   0.0000000000E+00   0.5330674934E+01   0.1192322563E+01   0.0000000000E+00  -0.9418884533E+00
   0.3063571161E-02  -0.1260231958E-03   0.1609859391E-02   0.9702304517E-04   0.0000000000E+00   0.0000000000E+00   0.3992294994E+01   0.1361684405E+01   0.0000000000E+00  -0.1985829819E+01
   0.3226154832E-02   0.3631011505E-03   0.1590587312E-02   0.1000169875E-03   0.0000000000E+00   0.0000000000E+00   0.4537522969E+01   0.1026660493E+01   0.0000000000E+00  -0.1123713633E+01
   0.2966624566E-02   0.1652487521E-03   0.1590456816E-02   0.9292192814E-04   0.0000000000E+00   0.0000000000E+00   0.4635124677E+01   0.1231206056E+01   0.0000000000E+00  -0.1578152504E+01
   0.3320826374E-02   0.7215189772E-04   0.1607714844E-02   0.1044408077E-03   0.0000000000E+00   0.0000000000E+00   0.4068203302E+01   0.1189705069E+01   0.0000000000E+00  -0.1568236557E+01
   0.5919343127E-02  -0.1621660757E-02   0.1732639307E-02   0.1667817327E-03   0.0000000000E+00   0.0000000000E+00   0.1784456861E+01   0.8724978863E+00   0.0000000000E+00  -0.1277951871E+01
   0.4800661769E-02  -0.1894354822E-02   0.1730312659E-02   0.1396145685E-03   0.0000000000E+00   0.0000000000E+00   0.1476843906E+01   0.1206868851E+01   0.0000000000E+00  -0.1387767889E+01
   0.5520493967E-02  -0.2897233909E-02   0.1778075487E-02   0.1521003712E-03   0.0000000000E+00   0.0000000000E+00   0.1015477019E+01   0.1049216276E+01   0.0000000000E+00  -0.1110480103E+01
   0.5359240514E-02  -0.1757068124E-02   0.1730714164E-02   0.1541378163E-03   0.0000000000E+00   0.0000000000E+00   0.1690170876E+01   0.1057277671E+01   0.0000000000E+00  -0.1348268973E+01
   0.5161457047E-02  -0.2395671788E-02   0.1755073247E-02   0.1459801615E-03   0.0000000000E+00   0.0000000000E+00   0.1214279475E+01   0.1087198175E+01   0.0000000000E+00  -0.1219462617E+01
   0.5719067245E-02  -0.2258494904E-02   0.1754506205E-02   0.1603933657E-03   0.0000000000E+00   0.0000000000E+00   0.1402857343E+01   0.9865451570E+00   0.0000000000E+00  -0.1229349103E+01
   0.1319843727E+00   0.8388592391E-01   0.2375264696E-02   0.6711715149E-03   0.0000000000E+00   0.0000000000E+00   0.9493476435E+00  -0.7126527933E-02   0.0000000000E+00   0.2854567885E-01
   0.1424122279E+00   0.1006428733E+00   0.2412226857E-02   0.6428723241E-03   0.0000000000E+00   0.0000000000E+00   0.1053607966E+01   0.9243824940E-03   0.0000000000E+00   0.3166010516E-03
   0.1222237055E+00   0.1005669105E+00   0.2223708545E-02   0.5669094581E-03   0.0000000000E+00   0.0000000000E+00   0.1013286571E+01   0.1292799607E-02   0.0000000000E+00   0.1049679912E-02
   0.1371965557E+00   0.9226591407E-01   0.2392008749E-02   0.6585371683E-03   0.0000000000E+00   0.0000000000E+00   0.1000291603E+01  -0.2884441845E-02   0.0000000000E+00   0.1367595316E-01
   0.1323171112E+00   0.1006073090E+00   0.2317116204E-02   0.6073080065E-03   0.0000000000E+00   0.0000000000E+00   0.1037967119E+01   0.1975487625E-02   0.0000000000E+00   0.6574863009E-03
   0.1271062310E+00   0.9222722297E-01   0.2301674975E-02   0.6198460745E-03   0.0000000000E+00   0.0000000000E+00   0.9805011634E+00  -0.3344194560E-02   0.0000000000E+00   0.1629389505E-01
   0.1411342158E+00   0.6664007946E-01   0.2507252761E-02   0.7682595571E-03   0.0000000000E+00   0.0000000000E+00   0.8694016295E+00  -0.2040300237E-01   0.0000000000E+00   0.3346318170E-01
   0.1210727003E+00   0.6811058304E-01   0.2342684253E-02   0.6836929428E-03   0.0000000000E+00   0.0000000000E+00   0.8675223223E+00  -0.3009304491E-01   0.0000000000E+00   0.5642448468E-01
   0.1365612613E+00   0.7526397150E-01   0.2443226325E-02   0.7206890986E-03   0.0000000000E+00   0.0000000000E+00   0.9081381730E+00  -0.1526067587E-01   0.0000000000E+00   0.3210183947E-01
   0.1265272394E+00   0.7599925781E-01   0.2357681397E-02   0.6784328095E-03   0.0000000000E+00   0.0000000000E+00   0.9078806595E+00  -0.1774309604E-01   0.0000000000E+00   0.4189357917E-01
   0.1311036473E+00   0.6737797520E-01   0.2425161308E-02   0.7286202004E-03   0.0000000000E+00   0.0000000000E+00   0.8695906502E+00  -0.2446272074E-01   0.0000000000E+00   0.4401252916E-01
   0.1845369277E+00   0.7392671081E-01   0.2845817687E-02   0.8387727059E-03   0.0000000000E+00   0.0000000000E+00   0.9225244777E+00  -0.4415904795E-02   0.0000000000E+00   0.5693608180E-02
   0.1847710168E+00   0.5208599244E-01   0.2867862801E-02   0.9142575386E-03   0.0000000000E+00   0.0000000000E+00   0.7964501526E+00  -0.1345608071E-01   0.0000000000E+00   0.7642469086E-02
   0.2030000030E+00   0.6089416397E-01   0.3000000000E-02   0.8941652660E-03   0.0000000000E+00   0.0000000000E+00   0.8474236019E+00  -0.8117537298E-02   0.0000000000E+00   0.2233138309E-03
   0.1846541619E+00   0.6300746547E-01   0.2857029937E-02   0.8776289739E-03   0.0000000000E+00   0.0000000000E+00   0.8594573830E+00  -0.9119046383E-02   0.0000000000E+00   0.6833067291E-02
   0.1938835223E+00   0.5649250277E-01   0.2931936347E-02   0.9066340732E-03   0.0000000000E+00   0.0000000000E+00   0.8219169698E+00  -0.1077441683E-01   0.0000000000E+00   0.3898581686E-02
   0.1937715559E+00   0.6741321953E-01   0.2926006910E-02   0.8692530330E-03   0.0000000000E+00   0.0000000000E+00   0.8849654835E+00  -0.6311419927E-02   0.0000000000E+00   0.2834049308E-02
   0.3800629352E-02  -0.4651906151E-03   0.1647494682E-02   0.1188030629E-03   0.0000000000E+00   0.0000000000E+00   0.2948043005E+01   0.1192222815E+01   0.0000000000E+00  -0.1737875584E+01
   0.3199967948E-02  -0.7065153255E-03   0.1647868588E-02   0.9956205751E-04   0.0000000000E+00   0.0000000000E+00   0.2625549061E+01   0.1782078759E+01   0.0000000000E+00  -0.2129023704E+01
   0.3748849984E-02  -0.1384487818E-02   0.1694623634E-02   0.1122980819E-03   0.0000000000E+00   0.0000000000E+00   0.1621404463E+01   0.1581754371E+01   0.0000000000E+00  -0.1650479156E+01
   0.3499592526E-02  -0.5851304653E-03   0.1646975506E-02   0.1099050947E-03   0.0000000000E+00   0.0000000000E+00   0.2885483116E+01   0.1519766652E+01   0.0000000000E+00  -0.1937432171E+01
   0.3475540505E-02  -0.1045265349E-02   0.1672377645E-02   0.1061662311E-03   0.0000000000E+00   0.0000000000E+00   0.2058355777E+01   0.1585918330E+01   0.0000000000E+00  -0.1818962840E+01
   0.3774057991E-02  -0.9238619370E-03   0.1670377481E-02   0.1165278230E-03   0.0000000000E+00   0.0000000000E+00   0.2318795190E+01   0.1437716960E+01   0.0000000000E+00  -0.1786800405E+01
   0.4677258886E-02  -0.4092060140E-02   0.1822825976E-02   0.1190513203E-03   0.0000000000E+00   0.0000000000E+00   0.2940027442E+00   0.7747607789E+00   0.0000000000E+00  -0.5515514928E+00
   0.3092282746E-02  -0.3509725883E-02   0.1798103746E-02   0.6657352717E-04   0.0000000000E+00   0.0000000000E+00   0.3606223077E-01   0.3969246746E+00   0.0000000000E+00  -0.1811313406E+00
   0.3472488023E-02  -0.5227011232E-02   0.1863611743E-02   0.7425427807E-04   0.0000000000E+00   0.0000000000E+00   0.1784795730E-01   0.1587897019E+00   0.0000000000E+00  -0.1023465782E+00
   0.3884888129E-02  -0.3799133440E-02   0.1810582229E-02   0.9457210994E-04   0.0000000000E+00   0.0000000000E+00   0.2001124364E+00   0.6195659009E+00   0.0000000000E+00  -0.3997188736E+00
   0.3284033188E-02  -0.4368510656E-02   0.1832505488E-02   0.7027192442E-04   0.0000000000E+00   0.0000000000E+00   0.1156268915E-01   0.2343086690E+00   0.0000000000E+00  -0.1265371658E+00
   0.4075472224E-02  -0.4659960260E-02   0.1843817514E-02   0.9622822951E-04   0.0000000000E+00   0.0000000000E+00   0.1353181699E+00   0.4849898109E+00   0.0000000000E+00  -0.3126919255E+00
   0.2895465086E-02  -0.1114953632E-02   0.1670416176E-02   0.8212870834E-04   0.0000000000E+00   0.0000000000E+00   0.1348914795E+01   0.2025269659E+01   0.0000000000E+00  -0.1740497247E+01
   0.2253249324E-02  -0.1033195436E-02   0.1661540045E-02   0.4758776380E-04   0.0000000000E+00   0.0000000000E+00   0.1247475448E+00   0.1841267573E+01   0.0000000000E+00  -0.7467545181E+00
   0.2778417724E-02  -0.2003133290E-02   0.1725368614E-02   0.6377348002E-04   0.0000000000E+00   0.0000000000E+00   0.1442232365E+00   0.1032327635E+01   0.0000000000E+00  -0.4671098819E+00
   0.2573804455E-02  -0.1072372975E-02   0.1665425361E-02   0.6655979503E-04   0.0000000000E+00   0.0000000000E+00   0.9455016112E+00   0.1981462731E+01   0.0000000000E+00  -0.1352393549E+01
   0.2518394513E-02  -0.1517708374E-02   0.1696015317E-02   0.5613667619E-04   0.0000000000E+00   0.0000000000E+00   0.8967309305E-01   0.1251329249E+01   0.0000000000E+00  -0.5021125428E+00
   0.2838158860E-02  -0.1559352887E-02   0.1699109910E-02   0.7264161323E-04   0.0000000000E+00   0.0000000000E+00   0.5982696552E+00   0.1502520530E+01   0.0000000000E+00  -0.1070026355E+01
   0.2557360019E-02  -0.4788814272E-03   0.1618996296E-02   0.7651855282E-04   0.0000000000E+00   0.0000000000E+00   0.2945475512E+01   0.2478309361E+01   0.0000000000E+00  -0.2811856337E+01
   0.2879353245E-02  -0.5920777934E-03   0.1634121645E-02   0.8866091762E-04   0.0000000000E+00   0.0000000000E+00   0.2837777193E+01   0.2063277025E+01   0.0000000000E+00  -0.2375611335E+01
   0.2727979441E-02  -0.7967930262E-03   0.1646273181E-02   0.7944810476E-04   0.0000000000E+00   0.0000000000E+00   0.2052810006E+01   0.2254893915E+01   0.0000000000E+00  -0.2169982941E+01
   0.3046865334E-02  -0.9098981216E-03   0.1658291194E-02   0.9168179842E-04   0.0000000000E+00   0.0000000000E+00   0.1933880032E+01   0.1917809976E+01   0.0000000000E+00  -0.1899604535E+01
   0.1618265520E-02  -0.5996603290E-03   0.1618265520E-02   0.0000000000E+00   0.0000000000E+00   0.0000000000E+00   0.1179836317E+01  -0.8767591017E-01   0.0000000000E+00   0.6433512643E+00
   0.1698068520E-02  -0.1584461568E-02   0.1698068520E-02   0.6095012117E-05   0.0000000000E+00   0.0000000000E+00  -0.3617764517E-01  -0.4175632546E+00   0.0000000000E+00   0.1782027193E+00
   0.1938278452E-02  -0.8118676514E-03   0.1642423813E-02   0.2835411355E-04   0.0000000000E+00   0.0000000000E+00   0.5796351793E+00   0.1062716711E+01   0.0000000000E+00  -0.2785507163E+00
   0.1663904563E-02  -0.1091840931E-02   0.1663904563E-02   0.3267529332E-05   0.0000000000E+00   0.0000000000E+00  -0.2110519323E+00  -0.8077839868E+00   0.0000000000E+00   0.2340186104E+00
   0.1977344931E-02  -0.1310620665E-02   0.1681490292E-02   0.2504922490E-04   0.0000000000E+00   0.0000000000E+00  -0.1869764565E-01   0.6379821381E+00   0.0000000000E+00  -0.2448183729E+00
  -0.1399771966E+00  -0.9888244853E-01   0.2280444291E-04   0.1117552473E-02   0.0000000000E+00   0.0000000000E+00   0.8780474736E-02   0.6361151222E-03   0.0000000000E+00   0.1106829176E-02
  -0.1199793127E+00  -0.9894295686E-01   0.2068427143E-04   0.1057044144E-02   0.0000000000E+00   0.0000000000E+00  -0.3398577187E-01   0.5120383581E-03   0.0000000000E+00   0.1670762598E-02
  -0.1348075417E+00  -0.9050739886E-01   0.4671527626E-04   0.1103256343E-02   0.0000000000E+00   0.0000000000E+00   0.4821814156E-01  -0.1993795038E-02   0.0000000000E+00   0.1482406152E-01
  -0.1299773305E+00  -0.9890998003E-01   0.2266447435E-04   0.1090020971E-02   0.0000000000E+00   0.0000000000E+00  -0.1056158874E-01   0.1099446961E-02   0.0000000000E+00   0.1350542912E-02
  -0.1248039597E+00  -0.9053705462E-01   0.5029228547E-04   0.1073600581E-02   0.0000000000E+00   0.0000000000E+00   0.2811106949E-01  -0.1533527053E-02   0.0000000000E+00   0.1628125579E-01
  -0.1014615416E-01  -0.2418665972E-01   0.7224408412E-03   0.2484860767E-03   0.0000000000E+00   0.0000000000E+00   0.3976541958E-01   0.5039684835E-01   0.0000000000E+00   0.6494977798E-01
  -0.4236962970E-02  -0.2210340640E-01   0.7587514399E-03   0.1577064995E-03   0.0000000000E+00   0.0000000000E+00   0.3068349467E-02  -0.1206232947E+00   0.0000000000E+00   0.4604768614E-02
  -0.8292447524E-02  -0.1864818244E-01   0.8150108861E-03   0.2238737632E-03   0.0000000000E+00   0.0000000000E+00   0.5654967425E-01   0.1054709270E+00   0.0000000000E+00   0.1106647604E+00
  -0.7191978640E-02  -0.2314358255E-01   0.7401758204E-03   0.2045477467E-03   0.0000000000E+00   0.0000000000E+00   0.2395569792E-01  -0.3326435450E-01   0.0000000000E+00   0.3717174473E-01
  -0.6265607378E-02  -0.2037673196E-01   0.7859787921E-03   0.1898525365E-03   0.0000000000E+00   0.0000000000E+00   0.2941773912E-01  -0.5671572561E-02   0.0000000000E+00   0.5483598389E-01
  -0.9220918850E-02  -0.2141731645E-01   0.7671078404E-03   0.2362835497E-03   0.0000000000E+00   0.0000000000E+00   0.4310514035E-01   0.6942320593E-01   0.0000000000E+00   0.8299144626E-01
   0.2887374097E-02  -0.7982985402E-01   0.2887374097E-02   0.1701441763E-03   0.0000000000E+00   0.0000000000E+00   0.1256817431E-02  -0.3341871908E-01   0.0000000000E+00   0.7230376131E-02
   0.3075475833E-02  -0.9982754026E-01   0.3075475833E-02   0.1724607393E-03   0.0000000000E+00   0.0000000000E+00   0.2819247528E-02   0.1901096048E-02   0.0000000000E+00  -0.4204259548E-02
   0.2981265185E-02  -0.8982802626E-01   0.2981265185E-02   0.1719698439E-03   0.0000000000E+00   0.0000000000E+00   0.2250583867E-02  -0.1061488669E-01   0.0000000000E+00   0.3702555596E-02
   0.1307497977E-01  -0.9973344398E-01   0.3074979993E-02   0.2665570240E-03   0.0000000000E+00   0.0000000000E+00  -0.1174154690E-01   0.2418388839E-02   0.0000000000E+00   0.3370982737E-02
   0.1298137313E-01  -0.8973334342E-01   0.2981373354E-02   0.2666601769E-03   0.0000000000E+00   0.0000000000E+00  -0.9103660154E-02  -0.1085720627E-01   0.0000000000E+00   0.1082857589E-01
   0.3605504790E-01  -0.6626392228E-01   0.2765436599E-02   0.4924230169E-03   0.0000000000E+00   0.0000000000E+00   0.1116925906E-01   0.3028408515E-01   0.0000000000E+00   0.3180707224E-01
   0.2624596286E-01  -0.5685828196E-01   0.2674028259E-02   0.3971277427E-03   0.0000000000E+00   0.0000000000E+00   0.1549389783E-01   0.1282942561E-01   0.0000000000E+00   0.3297248568E-01
   0.3115137859E-01  -0.6156011291E-01   0.2720605695E-02   0.4457645897E-03   0.0000000000E+00   0.0000000000E+00   0.1677409263E-01   0.2583996479E-01   0.0000000000E+00   0.2945510307E-01
   0.2319495130E-01  -0.6443845159E-01   0.2746955804E-02   0.3656255141E-03   0.0000000000E+00   0.0000000000E+00   0.1065766070E-02  -0.1123664431E-01   0.0000000000E+00   0.4138805010E-01
   0.2809849487E-01  -0.6914040006E-01   0.2791659069E-02   0.4141374397E-03   0.0000000000E+00   0.0000000000E+00  -0.2803154659E-02   0.5085852420E-02   0.0000000000E+00   0.4267383901E-01
  -0.3317585232E-02  -0.1707467941E-01   0.8464967683E-03   0.1382031891E-03   0.0000000000E+00   0.0000000000E+00   0.4421309581E-02  -0.9830708518E-01   0.0000000000E+00   0.1858891736E-01
   0.8091831898E-03  -0.1943847834E-01   0.8091831898E-03   0.6870446330E-04   0.0000000000E+00   0.0000000000E+00  -0.2222807701E-02  -0.3409849411E+00   0.0000000000E+00  -0.6698475792E-02
   0.8915563946E-03  -0.1500106322E-01   0.8915563946E-03   0.5438648234E-04   0.0000000000E+00   0.0000000000E+00  -0.2937182567E-02  -0.3625155574E+00   0.0000000000E+00  -0.8518043736E-02
  -0.1255031534E-02  -0.1825771674E-01   0.8270094661E-03   0.1023168644E-03   0.0000000000E+00   0.0000000000E+00   0.2958203167E-02  -0.2212009157E+00   0.0000000000E+00   0.4806348092E-02
   0.8489789445E-03  -0.1721974373E-01   0.8489789445E-03   0.6157246549E-04   0.0000000000E+00   0.0000000000E+00  -0.3474452853E-02  -0.3559754402E+00   0.0000000000E+00  -0.7449429381E-02
  -0.1213838557E-02  -0.1603641743E-01   0.8682024430E-03   0.9774776597E-04   0.0000000000E+00   0.0000000000E+00   0.3933225282E-02  -0.2255166211E+00   0.0000000000E+00   0.5971065692E-02
   0.1382854292E-01  -0.5574531474E-01   0.2659551723E-02   0.2670772625E-03   0.0000000000E+00   0.0000000000E+00  -0.4535816894E-03  -0.6445908490E-01   0.0000000000E+00   0.4012943355E-01
   0.2600964893E-02  -0.5070050000E-01   0.2600964893E-02   0.1430628992E-03   0.0000000000E+00   0.0000000000E+00  -0.7281765612E-04  -0.1759607032E+00   0.0000000000E+00   0.4208114673E-02
   0.2733281341E-02  -0.6370340048E-01   0.2733281341E-02   0.1598695206E-03   0.0000000000E+00   0.0000000000E+00   0.9167460722E-03  -0.1065666378E+00   0.0000000000E+00   0.6646434937E-02
   0.8215701556E-02  -0.5322215373E-01   0.2631205946E-02   0.2058256723E-03   0.0000000000E+00   0.0000000000E+00   0.4580526839E-03  -0.1202883698E+00   0.0000000000E+00   0.2193994669E-01
   0.2668536359E-02  -0.5720103723E-01   0.2668536359E-02   0.1523773677E-03   0.0000000000E+00   0.0000000000E+00   0.6768729404E-03  -0.1412095217E+00   0.0000000000E+00   0.4371394758E-02
   0.8281470897E-02  -0.5972578542E-01   0.2696975287E-02   0.2120455823E-03   0.0000000000E+00   0.0000000000E+00  -0.3549864776E-03  -0.8939674344E-01   0.0000000000E+00   0.2213307070E-01
  -0.2455152379E-02  -0.1306390771E-01   0.9270766308E-03   0.1196953855E-03   0.0000000000E+00   0.0000000000E+00   0.6025001475E-02  -0.6431683569E-01   0.0000000000E+00   0.3368232460E-01
   0.9680002534E-03  -0.1142143123E-01   0.9680002534E-03   0.4219786834E-04   0.0000000000E+00   0.0000000000E+00  -0.3913795135E-02  -0.3791123818E+00   0.0000000000E+00  -0.1077987197E-01
  -0.7826309457E-03  -0.1403357022E-01   0.9084835643E-03   0.8595618335E-04   0.0000000000E+00   0.0000000000E+00   0.4091274695E-02  -0.2154690751E+00   0.0000000000E+00   0.1111690922E-01
   0.9284312319E-03  -0.1321126316E-01   0.9284312319E-03   0.4827623753E-04   0.0000000000E+00   0.0000000000E+00  -0.4506248547E-02  -0.3761345265E+00   0.0000000000E+00  -0.9483672521E-02
  -0.7443528592E-03  -0.1224123044E-01   0.9467616508E-03   0.8238566214E-04   0.0000000000E+00   0.0000000000E+00   0.5091161235E-02  -0.2156656010E+00   0.0000000000E+00   0.1257154852E-01
   0.9125982526E-02  -0.3549679094E-01   0.2431869626E-02   0.1979087589E-03   0.0000000000E+00   0.0000000000E+00   0.1418601508E-02  -0.1278268497E+00   0.0000000000E+00   0.1810712184E-01
   0.7908762716E-02  -0.2816086732E-01   0.2333353096E-02   0.1738322817E-03   0.0000000000E+00   0.0000000000E+00   0.1988969674E-02  -0.1377972565E+00   0.0000000000E+00   0.8149981089E-02
   0.2377150472E-02  -0.3175948586E-01   0.2377150472E-02   0.1036634372E-03   0.0000000000E+00   0.0000000000E+00  -0.7026808997E-03  -0.2782358232E+00   0.0000000000E+00   0.3788399531E-02
   0.8518903206E-02  -0.3182852876E-01   0.2384141706E-02   0.1861690369E-03   0.0000000000E+00   0.0000000000E+00   0.1391328725E-02  -0.1339142943E+00   0.0000000000E+00   0.1361012864E-01
   0.5143695644E-02  -0.2996137033E-01   0.2355990834E-02   0.1375540666E-03   0.0000000000E+00   0.0000000000E+00   0.8295007055E-03  -0.2094499848E+00   0.0000000000E+00   0.6126667038E-02
   0.5752419322E-02  -0.3362697701E-01   0.2405362872E-02   0.1519474907E-03   0.0000000000E+00   0.0000000000E+00   0.1558262853E-02  -0.2011400579E+00   0.0000000000E+00   0.1050238531E-01
  -0.2692600257E-02  -0.5741139734E-02   0.1117730503E-02   0.1389404255E-03   0.0000000000E+00   0.0000000000E+00   0.2240029144E+00   0.5805040457E+00   0.0000000000E+00   0.4320445572E+00
  -0.1077713762E-02  -0.7263923970E-02   0.1071584328E-02   0.8894272968E-04   0.0000000000E+00   0.0000000000E+00   0.1285049651E-01   0.6657761191E-01   0.0000000000E+00   0.7678396350E-01
  -0.1885874660E-02  -0.6503088776E-02   0.1093939880E-02   0.1133844242E-03   0.0000000000E+00   0.0000000000E+00   0.1081897731E+00   0.3352462169E+00   0.0000000000E+00   0.2438404467E+00
  -0.8218463841E-03  -0.6219010557E-02   0.1103428346E-02   0.8316548319E-04   0.0000000000E+00   0.0000000000E+00   0.6717034388E-02   0.1095757839E+00   0.0000000000E+00   0.8843860112E-01
  -0.1627903701E-02  -0.5455886543E-02   0.1127887479E-02   0.1098959969E-03   0.0000000000E+00   0.0000000000E+00   0.1354920704E+00   0.4057696591E+00   0.0000000000E+00   0.2887190127E+00
   0.6905032418E-02  -0.2212138401E-01   0.2241276298E-02   0.1523818942E-03   0.0000000000E+00   0.0000000000E+00   0.2731572391E-02  -0.1343048916E+00   0.0000000000E+00  -0.2497490799E-02
   0.2280047822E-02  -0.2493951016E-01   0.2280047822E-02   0.8518704472E-04   0.0000000000E+00   0.0000000000E+00  -0.1078894627E-02  -0.3135537320E+00   0.0000000000E+00   0.4523152832E-02
   0.7408398405E-02  -0.2514093439E-01   0.2288815765E-02   0.1632974112E-03   0.0000000000E+00   0.0000000000E+00   0.1447366962E-02  -0.1383081908E+00   0.0000000000E+00   0.3574877894E-02
   0.4593274532E-02  -0.2353154253E-01   0.2261396472E-02   0.1176880687E-03   0.0000000000E+00   0.0000000000E+00   0.1305360064E-02  -0.2252491371E+00   0.0000000000E+00   0.1550419728E-02
   0.5095255649E-02  -0.2654890005E-01   0.2307550839E-02   0.1307983506E-03   0.0000000000E+00   0.0000000000E+00   0.2089127437E-02  -0.2229013542E+00   0.0000000000E+00   0.5679060624E-02
  -0.1702685499E-02  -0.9852206985E-02   0.1001643361E-02   0.1030650947E-03   0.0000000000E+00   0.0000000000E+00   0.8405497954E-02  -0.1348670454E-01   0.0000000000E+00   0.5158258308E-01
   0.1039450327E-02  -0.8533653519E-02   0.1039450327E-02   0.3196234110E-04   0.0000000000E+00   0.0000000000E+00  -0.5548751519E-02  -0.3917960580E+00   0.0000000000E+00  -0.1398477893E-01
  -0.3681627741E-03  -0.1063784902E-01   0.9840016559E-03   0.7160158402E-04   0.0000000000E+00   0.0000000000E+00   0.5533955896E-02  -0.1989488587E+00   0.0000000000E+00   0.1837535409E-01
   0.1002393814E-02  -0.9977587520E-02   0.1002393814E-02   0.3703498011E-04   0.0000000000E+00   0.0000000000E+00  -0.6189402755E-02  -0.3925266255E+00   0.0000000000E+00  -0.1239375398E-01
  -0.3323615135E-03  -0.9191488764E-02   0.1019802916E-02   0.6895520646E-04   0.0000000000E+00   0.0000000000E+00   0.7118544388E-02  -0.1944726779E+00   0.0000000000E+00   0.2053337863E-01
   0.6014299941E-02  -0.1718247095E-01   0.2155257281E-02   0.1327249534E-03   0.0000000000E+00   0.0000000000E+00   0.3712864425E-02  -0.1180453071E+00   0.0000000000E+00  -0.1419284030E-01
   0.2190824950E-02  -0.1943849784E-01   0.2190824950E-02   0.6868496228E-04   0.0000000000E+00   0.0000000000E+00  -0.1533084321E-02  -0.3410723941E+00   0.0000000000E+00   0.5629895431E-02
   0.6461123380E-02  -0.1965179086E-01   0.2199723760E-02   0.1426900442E-03   0.0000000000E+00   0.0000000000E+00   0.1718573905E-02  -0.1295384011E+00   0.0000000000E+00  -0.7306691060E-02
   0.4103293090E-02  -0.1831150531E-01   0.2173771760E-02   0.9968399480E-04   0.0000000000E+00   0.0000000000E+00   0.1906482000E-02  -0.2309988661E+00   0.0000000000E+00  -0.3363152796E-02
   0.4548759415E-02  -0.2077858443E-01   0.2216881355E-02   0.1118898656E-03   0.0000000000E+00   0.0000000000E+00   0.2748678924E-02  -0.2339696739E+00   0.0000000000E+00   0.7476983151E-03
   0.1235638068E-02  -0.2808017123E-02   0.1235638068E-02   0.1066440718E-04   0.0000000000E+00   0.0000000000E+00  -0.3520923496E-01  -0.4185473403E+00   0.0000000000E+00  -0.5480490272E-01
   0.1201989700E-02  -0.3566338159E-02   0.1201989700E-02   0.1341762107E-04   0.0000000000E+00   0.0000000000E+00  -0.3140755519E-01  -0.4405187153E+00   0.0000000000E+00  -0.4972480819E-01
   0.5440849625E-03  -0.3136344184E-02   0.1218830205E-02   0.4170888635E-04   0.0000000000E+00   0.0000000000E+00   0.3819888244E-01   0.6408314510E-01   0.0000000000E+00   0.9619995217E-01
   0.5208002751E-02  -0.1317478852E-01   0.2075094141E-02   0.1145494772E-03   0.0000000000E+00   0.0000000000E+00   0.4926020871E-02  -0.8921203000E-01   0.0000000000E+00  -0.2709341467E-01
   0.4515242335E-02  -0.9939955664E-02   0.2000382905E-02   0.9851143599E-04   0.0000000000E+00   0.0000000000E+00   0.6761785508E-02  -0.4276173320E-01   0.0000000000E+00  -0.4277249656E-01
   0.2032012097E-02  -0.1142145965E-01   0.2032012097E-02   0.4216945097E-04   0.0000000000E+00   0.0000000000E+00  -0.2932738424E-02  -0.3790185297E+00   0.0000000000E+00   0.9021473830E-02
   0.4862997246E-02  -0.1155728769E-01   0.2039113116E-02   0.1066149131E-03   0.0000000000E+00   0.0000000000E+00   0.2699284810E-02  -0.7271401667E-01   0.0000000000E+00  -0.3270631761E-01
   0.3274341947E-02  -0.1068162550E-01   0.2016912237E-02   0.6942260392E-04   0.0000000000E+00   0.0000000000E+00   0.3642027145E-02  -0.2131096208E+00   0.0000000000E+00  -0.1511291703E-01
   0.3620765878E-02  -0.1229675249E-01   0.2054311578E-02   0.7973101423E-04   0.0000000000E+00   0.0000000000E+00   0.4758781631E-02  -0.2280847485E+00   0.0000000000E+00  -0.1036428987E-01
   0.1993772548E-03  -0.1971241653E-02   0.1276391395E-02   0.6524742673E-04   0.0000000000E+00   0.0000000000E+00   0.1673682750E+00   0.1094149575E+01   0.0000000000E+00   0.5145263561E+00
   0.7160762804E-03  -0.2391229759E-02   0.1254583349E-02   0.3635566095E-04   0.0000000000E+00   0.0000000000E+00   0.3767238526E-01   0.2789472169E+00   0.0000000000E+00   0.1545588638E+00
   0.2423487510E-04  -0.2720337286E-02   0.1237487185E-02   0.6661944419E-04   0.0000000000E+00   0.0000000000E+00   0.7510732792E-01   0.6161403140E+00   0.0000000000E+00   0.2913053237E+00
   0.3942490747E-02  -0.7332181286E-02   0.1930292887E-02   0.8505889450E-04   0.0000000000E+00   0.0000000000E+00   0.1022815823E-01   0.3252214578E-01   0.0000000000E+00  -0.6508798035E-01
   0.1960560479E-02  -0.8533686213E-02   0.1960560479E-02   0.3192964682E-04   0.0000000000E+00   0.0000000000E+00  -0.4375451635E-02  -0.3917105576E+00   0.0000000000E+00   0.1190005589E-01
   0.4230242732E-02  -0.8636031855E-02   0.1966713972E-02   0.9182226504E-04   0.0000000000E+00   0.0000000000E+00   0.3548427035E-02  -0.1605283103E-01   0.0000000000E+00  -0.5010737360E-01
   0.2952246683E-02  -0.7933831234E-02   0.1946147753E-02   0.5759632588E-04   0.0000000000E+00   0.0000000000E+00   0.5240564920E-02  -0.1824913541E+00   0.0000000000E+00  -0.2377201857E-01
   0.3238631605E-02  -0.9235447597E-02   0.1981201895E-02   0.6659389264E-04   0.0000000000E+00   0.0000000000E+00   0.6688360140E-02  -0.2090715274E+00   0.0000000000E+00  -0.1749760090E-01
   0.1301947901E-02  -0.1584403757E-02   0.1301947901E-02   0.6152823021E-05   0.0000000000E+00   0.0000000000E+00  -0.4043352743E-01  -0.4184589293E+00   0.0000000000E+00  -0.1788888045E+00
   0.1266483930E-02  -0.2196456131E-02   0.1266483930E-02   0.8162989016E-05   0.0000000000E+00   0.0000000000E+00  -0.5579634580E-01  -0.4186747221E+00   0.0000000000E+00  -0.7992500012E-01
   0.7498652198E-03  -0.1775486011E-02   0.1288372289E-02   0.3803675943E-04   0.0000000000E+00   0.0000000000E+00   0.1236881199E+00   0.3783036174E+00   0.0000000000E+00   0.2126160665E+00
   0.1997613991E-02  -0.9977607686E-02   0.1997613991E-02   0.3701481415E-04   0.0000000000E+00   0.0000000000E+00  -0.5138936950E-02  -0.3923188908E+00   0.0000000000E+00   0.1100618402E-01
   0.1893068730E-02  -0.6203977148E-02   0.1893068730E-02   0.2341648151E-04   0.0000000000E+00   0.0000000000E+00  -0.7238703888E-02  -0.4009753960E+00   0.0000000000E+00   0.1673804989E-01
   0.2918503865E-02  -0.6766660564E-02   0.1912404935E-02   0.5565634580E-04   0.0000000000E+00   0.0000000000E+00   0.1028606532E-01  -0.1720145583E+00   0.0000000000E+00  -0.2771068956E-01
   0.1928169685E-02  -0.7368890499E-02   0.1928169685E-02   0.2761425096E-04   0.0000000000E+00   0.0000000000E+00  -0.7783589973E-02  -0.4061068580E+00   0.0000000000E+00   0.1521302211E-01
   0.7442038903E-03  -0.1025077934E-02   0.1339091365E-02   0.4797342609E-04   0.0000000000E+00   0.0000000000E+00   0.1447274515E+00   0.1872812910E+01   0.0000000000E+00   0.7761768311E+00
   0.4693273492E-03  -0.1497616072E-02   0.1305278185E-02   0.5715408827E-04   0.0000000000E+00   0.0000000000E+00   0.1031199104E+00   0.1314088916E+01   0.0000000000E+00   0.5395677143E+00
   0.1021342401E-02  -0.1306573154E-02   0.1318786139E-02   0.2523081604E-04   0.0000000000E+00   0.0000000000E+00  -0.1149671674E-01   0.6491714883E+00   0.0000000000E+00   0.2542519045E+00
   0.1828275268E-02  -0.4324434891E-02   0.1828275268E-02   0.1639536933E-04   0.0000000000E+00   0.0000000000E+00  -0.1456516050E-01  -0.4068530281E+00   0.0000000000E+00   0.2605559557E-01
   0.2651128755E-02  -0.4774177775E-02   0.1846690616E-02   0.4687034495E-04   0.0000000000E+00   0.0000000000E+00   0.1749297314E-01  -0.1030689719E+00   0.0000000000E+00  -0.4510966052E-01
   0.1862123345E-02  -0.5264291337E-02   0.1862123345E-02   0.1982061277E-04   0.0000000000E+00   0.0000000000E+00  -0.1317367612E-01  -0.4192099419E+00   0.0000000000E+00   0.2309569839E-01
   0.2683534109E-02  -0.5716405644E-02   0.1879095970E-02   0.4792416596E-04   0.0000000000E+00   0.0000000000E+00   0.8288274396E-02  -0.1253061796E+00   0.0000000000E+00  -0.3782280047E-01
   0.9590897292E-04  -0.1079530409E-02   0.1331869723E-02   0.8307344095E-04   0.0000000000E+00   0.0000000000E+00   0.1468537110E+01   0.2046761675E+01   0.0000000000E+00   0.1816576857E+01
   0.4467112931E-03  -0.4742095022E-03   0.1381418992E-02   0.7639282782E-04   0.0000000000E+00   0.0000000000E+00   0.2980778575E+01   0.2482017007E+01   0.0000000000E+00   0.2827357746E+01
   0.4207260839E-03  -0.1050513978E-02   0.1336150167E-02   0.6731362206E-04   0.0000000000E+00   0.0000000000E+00   0.1005969084E+01   0.2000831511E+01   0.0000000000E+00   0.1394908476E+01
   0.5962906042E-03  -0.7483336926E-03   0.1361088162E-02   0.6349315241E-04   0.0000000000E+00   0.0000000000E+00   0.1470639981E+01   0.2515395311E+01   0.0000000000E+00   0.1975415092E+01
   0.2698104751E-03  -0.7767143525E-03   0.1355144695E-02   0.7988873546E-04   0.0000000000E+00   0.0000000000E+00   0.2127315156E+01   0.2251522503E+01   0.0000000000E+00   0.2206982703E+01
   0.1764370174E-02  -0.2808061312E-02   0.1764370174E-02   0.1062021845E-04   0.0000000000E+00   0.0000000000E+00  -0.3246819852E-01  -0.4185202382E+00   0.0000000000E+00   0.5222252891E-01
   0.2429135861E-02  -0.3157034660E-02   0.1782046359E-02   0.4045580952E-04   0.0000000000E+00   0.0000000000E+00   0.3522363001E-01   0.3983895008E-01   0.0000000000E+00  -0.8673602422E-01
   0.1798011250E-02  -0.3566367630E-02   0.1798011250E-02   0.1338814984E-04   0.0000000000E+00   0.0000000000E+00  -0.2782666579E-01  -0.4389028306E+00   0.0000000000E+00   0.4542760806E-01
   0.2461144705E-02  -0.3918080757E-02   0.1814055203E-02   0.4048396324E-04   0.0000000000E+00   0.0000000000E+00   0.1535356583E-01  -0.1303523151E-01   0.0000000000E+00  -0.6660996978E-01
   0.8572478564E-03  -0.1347459100E-03   0.1424369578E-02   0.6010131000E-04   0.0000000000E+00   0.0000000000E+00   0.5276801909E+01   0.2260082062E+01   0.0000000000E+00   0.3923562739E+01
   0.5100746360E-03   0.9427423859E-04   0.1425413853E-02   0.7596731619E-04   0.0000000000E+00   0.0000000000E+00   0.5585229918E+01   0.1446762784E+01   0.0000000000E+00   0.2150874950E+01
   0.6499104280E-03  -0.3036389306E-03   0.1400825110E-02   0.6908585137E-04   0.0000000000E+00   0.0000000000E+00   0.3766874010E+01   0.1971828688E+01   0.0000000000E+00   0.3349190922E+01
   0.6844650200E-03  -0.1955418868E-04   0.1425695460E-02   0.6871596102E-04   0.0000000000E+00   0.0000000000E+00   0.6305075273E+01   0.2491046678E+01   0.0000000000E+00   0.2433661889E+01
   0.4792536379E-03  -0.1887136793E-03   0.1404277096E-02   0.7743401074E-04   0.0000000000E+00   0.0000000000E+00   0.4479016817E+01   0.1986973511E+01   0.0000000000E+00   0.2609813375E+01
   0.2239072409E-02  -0.1791477541E-02   0.1712547853E-02   0.3725419885E-04   0.0000000000E+00   0.0000000000E+00   0.1200060815E+00   0.3525656580E+00   0.0000000000E+00  -0.2010461589E+00
   0.1733516653E-02  -0.2196494769E-02   0.1733516653E-02   0.8124351263E-05   0.0000000000E+00   0.0000000000E+00  -0.5402433912E-01  -0.4194475862E+00   0.0000000000E+00   0.7708129732E-01
   0.2272729533E-02  -0.2407102144E-02   0.1746204977E-02   0.3569200629E-04   0.0000000000E+00   0.0000000000E+00   0.3028127580E-01   0.2553676417E+00   0.0000000000E+00  -0.1426937031E+00
   0.1381636858E-02  -0.5995240180E-03   0.1381636858E-02   0.1363110338E-06   0.0000000000E+00   0.0000000000E+00   0.1143723310E+01  -0.1064755494E+00   0.0000000000E+00  -0.6289040737E+00
   0.1046992637E-02  -0.4483273478E-03   0.1395382048E-02   0.3974776024E-04   0.0000000000E+00   0.0000000000E+00   0.1323881926E+01   0.3503988091E+01   0.0000000000E+00   0.2127688592E+01
   0.1060461692E-02  -0.8077763582E-03   0.1357905430E-02   0.2857948685E-04   0.0000000000E+00   0.0000000000E+00   0.5598913178E+00   0.1060391120E+01   0.0000000000E+00   0.2863387980E+00
   0.1200850797E-02  -0.5504054745E-03   0.1383762274E-02   0.2067762846E-04   0.0000000000E+00   0.0000000000E+00   0.3710095945E+00   0.2120099713E+01   0.0000000000E+00   0.6264832948E-01
   0.8923026168E-03  -0.7365875339E-03   0.1363941074E-02   0.4397568514E-04   0.0000000000E+00   0.0000000000E+00   0.4080022173E-01   0.1967327962E+01   0.0000000000E+00   0.1559374329E+01
   0.3757808599E-01  -0.5376698102E-01   0.2646474690E-02   0.5119514794E-03   0.0000000000E+00   0.0000000000E+00   0.6537676791E-01   0.7294473559E-01   0.0000000000E+00  -0.1565849370E-01
   0.2996139866E-01  -0.4662485779E-01   0.2569653856E-02   0.4390554116E-03   0.0000000000E+00   0.0000000000E+00   0.6046698669E-01   0.7134880094E-01   0.0000000000E+00  -0.2106835234E-01
   0.3191166244E-01  -0.5531186786E-01   0.2659889536E-02   0.4553032443E-03   0.0000000000E+00   0.0000000000E+00   0.3617977316E-01   0.4352685786E-01   0.0000000000E+00   0.1088442316E-01
   0.3377043879E-01  -0.5019520802E-01   0.2608761688E-02   0.4762129802E-03   0.0000000000E+00   0.0000000000E+00   0.6588390399E-01   0.7549614944E-01   0.0000000000E+00  -0.2090913515E-01
   0.2810461644E-01  -0.5174204699E-01   0.2622777738E-02   0.4176126115E-03   0.0000000000E+00   0.0000000000E+00   0.3563616006E-01   0.3811968190E-01   0.0000000000E+00   0.6576174914E-02
   0.3325198606E-01  -0.3854187421E-01   0.2481801562E-02   0.4782766887E-03   0.0000000000E+00   0.0000000000E+00   0.1432646936E+00   0.1329731964E+00   0.0000000000E+00  -0.1035668262E+00
   0.3635831206E-01  -0.3111616592E-01   0.2398975459E-02   0.5137987801E-03   0.0000000000E+00   0.0000000000E+00   0.2752583574E+00   0.1688033125E+00   0.0000000000E+00  -0.1987688478E+00
   0.2861975482E-01  -0.3168748719E-01   0.2394234522E-02   0.4355011070E-03   0.0000000000E+00   0.0000000000E+00   0.1704700378E+00   0.1638834030E+00   0.0000000000E+00  -0.1508744185E+00
   0.3480511167E-01  -0.3482852404E-01   0.2440352070E-02   0.4965337594E-03   0.0000000000E+00   0.0000000000E+00   0.2074384359E+00   0.1540485266E+00   0.0000000000E+00  -0.1528140348E+00
   0.3248808872E-01  -0.3140038810E-01   0.2395659318E-02   0.4760864984E-03   0.0000000000E+00   0.0000000000E+00   0.2280371869E+00   0.1689748759E+00   0.0000000000E+00  -0.1774019460E+00
   0.3093703418E-01  -0.3511444274E-01   0.2439181775E-02   0.4571249614E-03   0.0000000000E+00   0.0000000000E+00   0.1533121868E+00   0.1451745913E+00   0.0000000000E+00  -0.1242461683E+00
   0.2125905059E-01  -0.3157746026E-01   0.2387089392E-02   0.3509933393E-03   0.0000000000E+00   0.0000000000E+00   0.7985231940E-01   0.1051593047E+00   0.0000000000E+00  -0.8268977357E-01
   0.1429392511E-01  -0.3042633093E-01   0.2368505311E-02   0.2628023709E-03   0.0000000000E+00   0.0000000000E+00   0.2439725513E-01   0.8024367546E-03   0.0000000000E+00  -0.2375407629E-01
   0.1678723222E-01  -0.3790927737E-01   0.2465475717E-02   0.2941669319E-03   0.0000000000E+00   0.0000000000E+00   0.1944547058E-01  -0.8509419493E-02   0.0000000000E+00   0.4236816962E-03
   0.1777644985E-01  -0.3100082337E-01   0.2377759349E-02   0.3079691304E-03   0.0000000000E+00   0.0000000000E+00   0.5419506590E-01   0.5400960700E-01   0.0000000000E+00  -0.5404993795E-01
   0.1554201717E-01  -0.3416749423E-01   0.2418428570E-02   0.2787936724E-03   0.0000000000E+00   0.0000000000E+00   0.2144743070E-01  -0.4882265054E-02   0.0000000000E+00  -0.1084149043E-01
   0.1902400321E-01  -0.3474405119E-01   0.2427143914E-02   0.3218978141E-03   0.0000000000E+00   0.0000000000E+00   0.4852167213E-01   0.4813799186E-01   0.0000000000E+00  -0.4088224774E-01
   0.1053307802E-01  -0.1886276896E-01   0.2188449170E-02   0.2112221427E-03   0.0000000000E+00   0.0000000000E+00   0.4284507051E-01   0.6913393501E-01   0.0000000000E+00  -0.8837802325E-01
   0.8968714434E-02  -0.1452853639E-01   0.2105589304E-02   0.1881065123E-03   0.0000000000E+00   0.0000000000E+00   0.5808072538E-01   0.1312725047E+00   0.0000000000E+00  -0.1312301143E+00
   0.9752329802E-02  -0.1669552232E-01   0.2148452582E-02   0.1997941765E-03   0.0000000000E+00   0.0000000000E+00   0.4601961224E-01   0.9260432053E-01   0.0000000000E+00  -0.1056168206E+00
   0.7492295991E-02  -0.1585631319E-01   0.2131212101E-02   0.1596057139E-03   0.0000000000E+00   0.0000000000E+00   0.3028551368E-01   0.8542035795E-02   0.0000000000E+00  -0.7034075044E-01
   0.8274064939E-02  -0.1802131002E-01   0.2172229419E-02   0.1732834835E-03   0.0000000000E+00   0.0000000000E+00   0.2575753770E-01  -0.2268934288E-01   0.0000000000E+00  -0.5374825855E-01
   0.1560392094E-01  -0.1987129226E-01   0.2208815445E-02   0.2887345424E-03   0.0000000000E+00   0.0000000000E+00   0.1328989927E+00   0.1991879056E+00   0.0000000000E+00  -0.1910991577E+00
   0.1228106470E-01  -0.2412763907E-01   0.2276258402E-02   0.2358265325E-03   0.0000000000E+00   0.0000000000E+00   0.3190442912E-01   0.2616688586E-01   0.0000000000E+00  -0.5294288123E-01
   0.1306838870E-01  -0.1936568443E-01   0.2198521499E-02   0.2513254741E-03   0.0000000000E+00   0.0000000000E+00   0.9285194057E-01   0.1375388091E+00   0.0000000000E+00  -0.1431291791E+00
   0.1140852784E-01  -0.2149505703E-01   0.2233810254E-02   0.2236722737E-03   0.0000000000E+00   0.0000000000E+00   0.3447476986E-01   0.4246349729E-01   0.0000000000E+00  -0.6781720775E-01
   0.1394321699E-01  -0.2199999928E-01   0.2243261093E-02   0.2617469185E-03   0.0000000000E+00   0.0000000000E+00   0.7980553324E-01   0.1153716490E+00   0.0000000000E+00  -0.1206740108E+00
   0.2331395593E-01  -0.1502208843E-01   0.2142570531E-02   0.3936610660E-03   0.0000000000E+00   0.0000000000E+00   0.5078230286E+00   0.2751742933E+00   0.0000000000E+00  -0.4229302420E+00
   0.1978751040E-01  -0.1108890225E-01   0.2060964199E-02   0.3572794506E-03   0.0000000000E+00   0.0000000000E+00   0.6368415435E+00   0.3156146630E+00   0.0000000000E+00  -0.5172069144E+00
   0.1805163751E-01  -0.1551114193E-01   0.2135187607E-02   0.3304278701E-03   0.0000000000E+00   0.0000000000E+00   0.3466707366E+00   0.3194108082E+00   0.0000000000E+00  -0.3788828546E+00
   0.2155203258E-01  -0.1305519290E-01   0.2103066776E-02   0.3757731978E-03   0.0000000000E+00   0.0000000000E+00   0.5597824643E+00   0.2842849876E+00   0.0000000000E+00  -0.4604874659E+00
   0.1891889398E-01  -0.1329896310E-01   0.2097395883E-02   0.3449125995E-03   0.0000000000E+00   0.0000000000E+00   0.4899725975E+00   0.3282860428E+00   0.0000000000E+00  -0.4567232696E+00
   0.2068165068E-01  -0.1526494433E-01   0.2137732984E-02   0.3637157659E-03   0.0000000000E+00   0.0000000000E+00   0.4416721813E+00   0.3030288668E+00   0.0000000000E+00  -0.4077504409E+00
   0.1580888957E+00  -0.6641410326E-01   0.2917203743E-02   0.1134536844E-02   0.0000000000E+00   0.0000000000E+00   0.1951696514E+00  -0.1279507303E-01   0.0000000000E+00  -0.2405057355E-01
   0.1411948389E+00  -0.6631139112E-01   0.2886298878E-02   0.1099308885E-02   0.0000000000E+00   0.0000000000E+00   0.1912012452E+00  -0.1458733193E-01   0.0000000000E+00  -0.3641795753E-01
   0.1520258801E+00  -0.8186113567E-01   0.2941655087E-02   0.1133675532E-02   0.0000000000E+00   0.0000000000E+00   0.1115282662E+00  -0.4194908968E-02   0.0000000000E+00  -0.1997334031E-01
   0.1496418138E+00  -0.6636124095E-01   0.2901704801E-02   0.1118429048E-02   0.0000000000E+00   0.0000000000E+00   0.1934334212E+00  -0.1358109808E-01   0.0000000000E+00  -0.2991937867E-01
   0.1466126847E+00  -0.7408487980E-01   0.2916301694E-02   0.1117875802E-02   0.0000000000E+00   0.0000000000E+00   0.1507915439E+00  -0.9521403898E-02   0.0000000000E+00  -0.2779166826E-01
   0.1550563583E+00  -0.7413664639E-01   0.2928407289E-02   0.1135079307E-02   0.0000000000E+00   0.0000000000E+00   0.1528385669E+00  -0.8655008556E-02   0.0000000000E+00  -0.2252074025E-01
   0.1877042412E+00  -0.6416071521E-01   0.2970209216E-02   0.1166191489E-02   0.0000000000E+00   0.0000000000E+00   0.2096219169E+00  -0.1048826288E-01   0.0000000000E+00  -0.7443140595E-02
   0.2030000030E+00  -0.7881840981E-01   0.3000000000E-02   0.1181588390E-02   0.0000000000E+00   0.0000000000E+00   0.1443345885E+00  -0.3464873671E-02   0.0000000000E+00  -0.5247375307E-03
   0.2030000030E+00  -0.5883464052E-01   0.3000000000E-02   0.1165358176E-02   0.0000000000E+00   0.0000000000E+00   0.2345879710E+00  -0.1247072508E-01   0.0000000000E+00  -0.1659405670E-03
   0.1953545295E+00  -0.7148790249E-01   0.2987512466E-02   0.1175553705E-02   0.0000000000E+00   0.0000000000E+00   0.1768826525E+00  -0.7147772941E-02   0.0000000000E+00  -0.3080293777E-02
   0.2030000030E+00  -0.6882543710E-01   0.3000000000E-02   0.1174563203E-02   0.0000000000E+00   0.0000000000E+00   0.1888922861E+00  -0.8128741284E-02   0.0000000000E+00  -0.1124015370E-03
   0.1953512332E+00  -0.6149650899E-01   0.2984216193E-02   0.1166941808E-02   0.0000000000E+00   0.0000000000E+00   0.2223113586E+00  -0.1128800368E-01   0.0000000000E+00  -0.3642065771E-02
   0.1829898855E+00  -0.9881809905E-01   0.2989878526E-02   0.1181901955E-02   0.0000000000E+00   0.0000000000E+00   0.5240952136E-01   0.6541659106E-03   0.0000000000E+00  -0.5352972393E-03
   0.2030000030E+00  -0.9881032256E-01   0.3000000000E-02   0.1189678444E-02   0.0000000000E+00   0.0000000000E+00   0.5734239747E-01   0.1781006961E-03   0.0000000000E+00   0.4984391762E-03
   0.1929948498E+00  -0.9881228417E-01   0.2994851849E-02   0.1187716831E-02   0.0000000000E+00   0.0000000000E+00   0.5612392425E-01   0.2766916297E-03   0.0000000000E+00  -0.6274017299E-03
   0.2030000030E+00  -0.8881345208E-01   0.3000000000E-02   0.1186544019E-02   0.0000000000E+00   0.0000000000E+00   0.1003673412E+00  -0.1246824200E-02   0.0000000000E+00  -0.2254167827E-03
   0.1929908800E+00  -0.8881533966E-01   0.2990881982E-02   0.1184663943E-02   0.0000000000E+00   0.0000000000E+00   0.9840345568E-01  -0.1316380633E-02   0.0000000000E+00  -0.1273510799E-02
   0.1740777777E+00  -0.7806808210E-01   0.2961187670E-02   0.1165474898E-02   0.0000000000E+00   0.0000000000E+00   0.1428123578E+00  -0.4652265382E-02   0.0000000000E+00  -0.1175377971E-01
   0.1808889383E+00  -0.7111296893E-01   0.2963620266E-02   0.1167259166E-02   0.0000000000E+00   0.0000000000E+00   0.1763007568E+00  -0.7745823283E-02   0.0000000000E+00  -0.9698891547E-02
   0.1885389550E+00  -0.7843931271E-01   0.2980665981E-02   0.1177464890E-02   0.0000000000E+00   0.0000000000E+00   0.1444213584E+00  -0.3877259381E-02   0.0000000000E+00  -0.5845915257E-02
   0.1869173281E+00  -0.4769373260E-01   0.2957024083E-02   0.1147520303E-02   0.0000000000E+00   0.0000000000E+00   0.2868545381E+00  -0.1895784452E-01   0.0000000000E+00  -0.7478354471E-02
   0.2030000030E+00  -0.3885970369E-01   0.3000000000E-02   0.1140295411E-02   0.0000000000E+00   0.0000000000E+00   0.3277014366E+00  -0.2157808971E-01   0.0000000000E+00  -0.1489588606E-03
   0.1949606689E+00  -0.5326257697E-01   0.2980515935E-02   0.1158050732E-02   0.0000000000E+00   0.0000000000E+00   0.2605049005E+00  -0.1558819851E-01   0.0000000000E+00  -0.3813284460E-02
   0.2030000030E+00  -0.4884604763E-01   0.3000000000E-02   0.1153949375E-02   0.0000000000E+00   0.0000000000E+00   0.2807956040E+00  -0.1748823714E-01   0.0000000000E+00  -0.1339369346E-03
   0.1949571087E+00  -0.4327527271E-01   0.2976955659E-02   0.1145353286E-02   0.0000000000E+00   0.0000000000E+00   0.3075290414E+00  -0.1992454595E-01   0.0000000000E+00  -0.3357704013E-02
   0.6541830683E-02  -0.4366368581E-02   0.1837451203E-02   0.1685646694E-03   0.0000000000E+00   0.0000000000E+00   0.6737270856E+00   0.8417118688E+00   0.0000000000E+00  -0.8361531966E+00
   0.5453915560E-02  -0.5916131013E-02   0.1887785960E-02   0.1315415766E-03   0.0000000000E+00   0.0000000000E+00   0.1720040638E+00   0.5107692723E+00   0.0000000000E+00  -0.3647666064E+00
   0.5609015811E-02  -0.4227514064E-02   0.1829609621E-02   0.1455082960E-03   0.0000000000E+00   0.0000000000E+00   0.5286819136E+00   0.8402704517E+00   0.0000000000E+00  -0.7273142131E+00
   0.5067060276E-02  -0.5004143224E-02   0.1856779026E-02   0.1252490356E-03   0.0000000000E+00   0.0000000000E+00   0.2041601155E+00   0.5981758081E+00   0.0000000000E+00  -0.4305960722E+00
   0.5997891856E-02  -0.5140960750E-02   0.1862637086E-02   0.1503419401E-03   0.0000000000E+00   0.0000000000E+00   0.4002189397E+00   0.7105786651E+00   0.0000000000E+00  -0.6046132600E+00
   0.2266647085E-02   0.6401383458E-03   0.1534509787E-02   0.6297196078E-04   0.0000000000E+00   0.0000000000E+00   0.7208485398E+01   0.2738833230E+01   0.0000000000E+00   0.6697217016E+00
   0.2375258678E-02   0.3773472532E-03   0.1551754154E-02   0.6898262323E-04   0.0000000000E+00   0.0000000000E+00   0.6659120896E+01   0.1828722359E+01   0.0000000000E+00  -0.7158792897E+00
   0.2184635963E-02   0.4515819607E-03   0.1537111824E-02   0.5965013468E-04   0.0000000000E+00   0.0000000000E+00   0.8293502551E+01   0.2985648266E+01   0.0000000000E+00   0.4365681269E+00
   0.2777074030E-02  -0.4556920946E-05   0.1592782360E-02   0.8718476275E-04   0.0000000000E+00   0.0000000000E+00   0.4684672435E+01   0.1379984476E+01   0.0000000000E+00  -0.1972369167E+01
   0.2521703780E-02  -0.1804378327E-03   0.1595086072E-02   0.7748072026E-04   0.0000000000E+00   0.0000000000E+00   0.4465448706E+01   0.1941544306E+01   0.0000000000E+00  -0.2590259551E+01
   0.2808750735E-02  -0.3010698962E-03   0.1612712985E-02   0.8815320682E-04   0.0000000000E+00   0.0000000000E+00   0.3793518122E+01   0.1888504433E+01   0.0000000000E+00  -0.2340567543E+01
   0.3433214124E-02  -0.2950464987E-03   0.1629790844E-02   0.1084734543E-03   0.0000000000E+00   0.0000000000E+00   0.3349153215E+01   0.1220891757E+01   0.0000000000E+00  -0.1805024491E+01
   0.3131562791E-02  -0.4156717984E-03   0.1628657281E-02   0.9889003556E-04   0.0000000000E+00   0.0000000000E+00   0.3328338090E+01   0.1578619109E+01   0.0000000000E+00  -0.2124561161E+01
   0.2030000030E+00   0.8082253956E-01   0.3000000000E-02   0.8225413564E-03   0.0000000000E+00   0.0000000000E+00   0.9649427661E+00  -0.2035350006E-02   0.0000000000E+00   0.1651006484E-03
   0.2030000030E+00   0.7085936361E-01   0.3000000000E-02   0.8593633150E-03   0.0000000000E+00   0.0000000000E+00   0.9064858359E+00  -0.5076705167E-02   0.0000000000E+00  -0.1157632643E-04
   0.1937667585E+00   0.7737711507E-01   0.2921209501E-02   0.8331431687E-03   0.0000000000E+00   0.0000000000E+00   0.9437895257E+00  -0.3418718680E-02   0.0000000000E+00   0.2766719985E-02
   0.1828025513E+00   0.1007313473E+00   0.2802544312E-02   0.7313463296E-03   0.0000000000E+00   0.0000000000E+00   0.1083143327E+01   0.7054247548E-03   0.0000000000E+00   0.2511000841E-03
   0.1929067079E+00   0.9078082457E-01   0.2906709857E-02   0.7808209673E-03   0.0000000000E+00   0.0000000000E+00   0.1024127590E+01  -0.6123046834E-03   0.0000000000E+00   0.8276482388E-03
   0.1836705534E+00   0.8733098573E-01   0.2824994353E-02   0.7870159348E-03   0.0000000000E+00   0.0000000000E+00   0.1002666326E+01  -0.1352421796E-02   0.0000000000E+00   0.3096272613E-02
   0.2030000030E+00   0.1007424245E+00   0.3000000000E-02   0.7424234907E-03   0.0000000000E+00   0.0000000000E+00   0.1085919764E+01   0.2643158453E-03   0.0000000000E+00  -0.2730672658E-03
   0.2030000030E+00   0.9078362081E-01   0.3000000000E-02   0.7836247055E-03   0.0000000000E+00   0.0000000000E+00   0.1025316366E+01  -0.6724016238E-03   0.0000000000E+00   0.6722545637E-04
   0.1929012191E+00   0.1007396659E+00   0.2901221083E-02   0.7396648729E-03   0.0000000000E+00   0.0000000000E+00   0.1085157494E+01   0.3900618413E-04   0.0000000000E+00   0.3464707907E-03
   0.3269873408E-02   0.1374547821E-02   0.1556902158E-02   0.9504890122E-04   0.0000000000E+00   0.0000000000E+00   0.4762665039E+01   0.1563129550E+01   0.0000000000E+00   0.3275193768E+00
   0.2511736259E-02   0.1528995510E-02   0.1527494539E-02   0.7511959969E-04   0.0000000000E+00   0.0000000000E+00   0.4880824711E+01   0.2981855879E+01   0.0000000000E+00   0.9440929086E+00
   0.2708051700E-02   0.9868547107E-03   0.1544915950E-02   0.7885268569E-04   0.0000000000E+00   0.0000000000E+00   0.5733099775E+01   0.2075291372E+01   0.0000000000E+00   0.4965066155E+00
   0.2890159315E-02   0.1451007262E-02   0.1541552775E-02   0.8431979163E-04   0.0000000000E+00   0.0000000000E+00   0.4971009940E+01   0.2294443234E+01   0.0000000000E+00   0.7307986669E+00
   0.2608502349E-02   0.1256928337E-02   0.1534813619E-02   0.7598942725E-04   0.0000000000E+00   0.0000000000E+00   0.5372441616E+01   0.2655383503E+01   0.0000000000E+00   0.8314893296E+00
   0.2989264919E-02   0.1181104546E-02   0.1551211359E-02   0.8735407626E-04   0.0000000000E+00   0.0000000000E+00   0.5146197208E+01   0.1717536395E+01   0.0000000000E+00   0.3372782410E+00
   0.2487638267E-02   0.8139516390E-03   0.1540001715E-02   0.7136740503E-04   0.0000000000E+00   0.0000000000E+00   0.6354704335E+01   0.2335609659E+01   0.0000000000E+00   0.5071580819E+00
   0.2569173808E-02   0.5482005295E-03   0.1553793318E-02   0.7576739254E-04   0.0000000000E+00   0.0000000000E+00   0.6306053006E+01   0.1805060684E+01   0.0000000000E+00  -0.2092418199E+00
   0.2788037753E-02   0.7206549452E-03   0.1557158063E-02   0.8280398823E-04   0.0000000000E+00   0.0000000000E+00   0.5601323403E+01   0.1589626905E+01   0.0000000000E+00  -0.2014650499E+00
   0.3031129096E-02   0.2145937870E-02   0.1536198966E-02   0.9008240032E-04   0.0000000000E+00   0.0000000000E+00   0.4146938753E+01   0.2312248936E+01   0.0000000000E+00   0.7931595959E+00
   0.2771641266E-02   0.1837867425E-02   0.1532055346E-02   0.8300167538E-04   0.0000000000E+00   0.0000000000E+00   0.4420337032E+01   0.2537534684E+01   0.0000000000E+00   0.7968849319E+00
   0.3148926826E-02   0.1759180437E-02   0.1544976076E-02   0.9150324749E-04   0.0000000000E+00   0.0000000000E+00   0.4495374856E+01   0.2040504170E+01   0.0000000000E+00   0.6442547611E+00
   0.1751670666E-02   0.9633201623E-03   0.1507669696E-02   0.5252405332E-04   0.0000000000E+00   0.0000000000E+00   0.5653025577E+01   0.4956749495E+01   0.0000000000E+00   0.7070166268E+00
   0.1473921013E-02   0.6408977725E-03   0.1499065999E-02   0.4176486351E-04   0.0000000000E+00   0.0000000000E+00   0.6902925979E+01   0.6675512417E+01   0.0000000000E+00  -0.1639951483E+00
   0.1461649538E-02   0.9513326106E-03   0.1498827054E-02   0.5071416962E-04   0.0000000000E+00   0.0000000000E+00   0.5642974021E+01   0.5025283552E+01   0.0000000000E+00  -0.1026932176E+00
   0.1322447138E-02   0.7922623143E-03   0.1494197631E-02   0.4747550228E-04   0.0000000000E+00   0.0000000000E+00   0.6253053158E+01   0.5746814245E+01   0.0000000000E+00  -0.6963197037E+00
   0.1612997849E-02   0.8020827688E-03   0.1503569855E-02   0.4711823077E-04   0.0000000000E+00   0.0000000000E+00   0.6156268398E+01   0.5822918562E+01   0.0000000000E+00   0.4397881035E+00
   0.9861848263E-03   0.1460992140E-02   0.1486755692E-02   0.6520514020E-04   0.0000000000E+00   0.0000000000E+00   0.4718149065E+01   0.3800239291E+01   0.0000000000E+00  -0.7252436847E+00
   0.1078678717E-02   0.1202695950E-02   0.1488142138E-02   0.5958200959E-04   0.0000000000E+00   0.0000000000E+00   0.5208599702E+01   0.4183469071E+01   0.0000000000E+00  -0.7369134399E+00
   0.1309221072E-02   0.1149865556E-02   0.1494672921E-02   0.5600774592E-04   0.0000000000E+00   0.0000000000E+00   0.5186661354E+01   0.4645597762E+01   0.0000000000E+00  -0.4555946676E+00
   0.1216173746E-02   0.1408368600E-02   0.1492733011E-02   0.6183774027E-04   0.0000000000E+00   0.0000000000E+00   0.4722862254E+01   0.4089114504E+01   0.0000000000E+00  -0.4580104393E+00
  -0.1778078683E-03   0.2040681965E-02   0.1458265362E-02   0.9278797514E-04   0.0000000000E+00   0.0000000000E+00   0.4255946648E+01   0.2120870273E+01   0.0000000000E+00  -0.7536848417E+00
  -0.2904894290E-03   0.1581631673E-02   0.1446939861E-02   0.9520615270E-04   0.0000000000E+00   0.0000000000E+00   0.4513720361E+01   0.1711617672E+01   0.0000000000E+00  -0.4180295084E+00
   0.9679929067E-04   0.1738810460E-02   0.1462648111E-02   0.8544863029E-04   0.0000000000E+00   0.0000000000E+00   0.4579638153E+01   0.2321277609E+01   0.0000000000E+00  -0.7815012272E+00
   0.7043006092E-03   0.1074595356E-02   0.1474088659E-02   0.6591200611E-04   0.0000000000E+00   0.0000000000E+00   0.5840352678E+01   0.3389547504E+01   0.0000000000E+00  -0.1083264389E+01
   0.6983701396E-03   0.8364335561E-03   0.1469172051E-02   0.6471557312E-04   0.0000000000E+00   0.0000000000E+00   0.6590564539E+01   0.3114069323E+01   0.0000000000E+00  -0.9685103576E+00
   0.9379079910E-03   0.1008680690E-02   0.1481980003E-02   0.5911862836E-04   0.0000000000E+00   0.0000000000E+00   0.5891179500E+01   0.4174290119E+01   0.0000000000E+00  -0.1111049216E+01
   0.4720647974E-03   0.7494887221E-03   0.1455952149E-02   0.7308543414E-04   0.0000000000E+00   0.0000000000E+00   0.6318637302E+01   0.2107820908E+01   0.0000000000E+00  -0.2793835182E+00
   0.4801881402E-03   0.9859362434E-03   0.1463061631E-02   0.7256753040E-04   0.0000000000E+00   0.0000000000E+00   0.5967077422E+01   0.2639379508E+01   0.0000000000E+00  -0.7855726027E+00
  -0.6464577691E-02  -0.1785089529E-02   0.1215554359E-02   0.2273649111E-03   0.0000000000E+00   0.0000000000E+00   0.1568925029E+01   0.4572851120E+00   0.0000000000E+00   0.8916522832E+00
  -0.6169421084E-02  -0.3703403823E-02   0.1166466206E-02   0.2228300274E-03   0.0000000000E+00   0.0000000000E+00   0.1168572253E+01   0.6230066609E+00   0.0000000000E+00   0.9342097365E+00
  -0.4582422405E-02  -0.2386884058E-02   0.1221130515E-02   0.1975114019E-03   0.0000000000E+00   0.0000000000E+00   0.1482580795E+01   0.7015447586E+00   0.0000000000E+00   0.1077523615E+01
  -0.6316307620E-02  -0.2743474750E-02   0.1191702050E-02   0.2258694004E-03   0.0000000000E+00   0.0000000000E+00   0.1380550839E+01   0.5495995706E+00   0.0000000000E+00   0.9324037994E+00
  -0.5376954133E-02  -0.3044797845E-02   0.1192765737E-02   0.2105168147E-03   0.0000000000E+00   0.0000000000E+00   0.1290842363E+01   0.6311824172E+00   0.0000000000E+00   0.9778739821E+00
  -0.5522722501E-02  -0.2085057590E-02   0.1219119749E-02   0.2133673600E-03   0.0000000000E+00   0.0000000000E+00   0.1552895794E+01   0.5850907305E+00   0.0000000000E+00   0.9877640825E+00
  -0.2456109379E-01  -0.7486703049E-02   0.9478557092E-03   0.4288375508E-03   0.0000000000E+00   0.0000000000E+00   0.8368319612E+00   0.1273718458E+00   0.0000000000E+00   0.4266534669E+00
  -0.2304201445E-01  -0.1365399054E-01   0.8672507546E-03   0.4217161606E-03   0.0000000000E+00   0.0000000000E+00   0.6046978943E+00   0.2299053143E+00   0.0000000000E+00   0.4304594612E+00
  -0.1881361735E-01  -0.9386894847E-02   0.9574631483E-03   0.3788670530E-03   0.0000000000E+00   0.0000000000E+00   0.7598611881E+00   0.2522752244E+00   0.0000000000E+00   0.5177479880E+00
  -0.2380009187E-01  -0.1056871507E-01   0.9090155338E-03   0.4269086283E-03   0.0000000000E+00   0.0000000000E+00   0.7215232991E+00   0.1813005747E+00   0.0000000000E+00   0.4354651029E+00
  -0.2092933539E-01  -0.1151999933E-01   0.9108384128E-03   0.4007349729E-03   0.0000000000E+00   0.0000000000E+00   0.6690529957E+00   0.2303881758E+00   0.0000000000E+00   0.4645645040E+00
  -0.2168587411E-01  -0.8435295627E-02   0.9541417943E-03   0.4053556227E-03   0.0000000000E+00   0.0000000000E+00   0.8128280733E+00   0.1925136142E+00   0.0000000000E+00   0.4721586691E+00
  -0.1823750164E+00   0.5066381735E-01   0.1265236034E-03   0.9194460465E-03   0.0000000000E+00   0.0000000000E+00   0.7885124918E+00  -0.1390918488E-01   0.0000000000E+00  -0.7361559063E-02
  -0.2000000030E+00   0.6089417483E-01   0.0000000000E+00   0.8941761256E-03   0.0000000000E+00   0.0000000000E+00   0.8474914209E+00  -0.8156432373E-02   0.0000000000E+00  -0.8578903597E-04
  -0.2000000030E+00   0.4095811515E-01   0.0000000000E+00   0.9581160540E-03   0.0000000000E+00   0.0000000000E+00   0.7341598973E+00  -0.1627136739E-01   0.0000000000E+00  -0.1181995939E-03
  -0.1911852760E+00   0.5578132628E-01   0.6549497052E-04   0.9091412782E-03   0.0000000000E+00   0.0000000000E+00   0.8178997960E+00  -0.1094903376E-01   0.0000000000E+00  -0.3732942838E-02
  -0.2000000030E+00   0.5092705610E-01   0.0000000000E+00   0.9270590984E-03   0.0000000000E+00   0.0000000000E+00   0.7905475366E+00  -0.1260780135E-01   0.0000000000E+00  -0.8946524962E-04
  -0.1911896292E+00   0.4581330619E-01   0.6114181808E-04   0.9411190909E-03   0.0000000000E+00   0.0000000000E+00   0.7616494298E+00  -0.1480737323E-01   0.0000000000E+00  -0.3357708624E-02
  -0.1629242328E+00   0.6260140772E-01   0.2881262130E-03   0.8503177204E-03   0.0000000000E+00   0.0000000000E+00   0.8541110458E+00  -0.1304686112E-01   0.0000000000E+00  -0.1614693312E-01
  -0.1650547882E+00   0.4046999827E-01   0.2340178425E-03   0.9270699662E-03   0.0000000000E+00   0.0000000000E+00   0.7332618232E+00  -0.2506427051E-01   0.0000000000E+00  -0.1555911824E-01
  -0.1726525345E+00   0.5663562607E-01   0.2044225294E-03   0.8878935687E-03   0.0000000000E+00   0.0000000000E+00   0.8218216282E+00  -0.1324477379E-01   0.0000000000E+00  -0.1137885189E-01
  -0.1737129108E+00   0.4556898482E-01   0.1822692307E-03   0.9253368171E-03   0.0000000000E+00   0.0000000000E+00   0.7605350197E+00  -0.1933649132E-01   0.0000000000E+00  -0.1166475897E-01
  -0.1639903128E+00   0.5153675768E-01   0.2602691594E-03   0.8897484848E-03   0.0000000000E+00   0.0000000000E+00   0.7930513329E+00  -0.1990340924E-01   0.0000000000E+00  -0.1648464791E-01
  -0.2000000030E+00   0.7085936439E-01   0.0000000000E+00   0.8593640907E-03   0.0000000000E+00   0.0000000000E+00   0.9060838914E+00  -0.5207038751E-02   0.0000000000E+00  -0.4423964756E-04
  -0.1918053155E+00   0.6420852934E-01   0.6436051848E-04   0.8809486400E-03   0.0000000000E+00   0.0000000000E+00   0.8664907964E+00  -0.7364964336E-02   0.0000000000E+00  -0.2806306288E-02
  -0.1798025395E+00   0.1007313451E+00   0.1974674662E-03   0.7313441116E-03   0.0000000000E+00   0.0000000000E+00   0.1083172981E+01   0.4558302362E-03   0.0000000000E+00  -0.1746657678E-03
  -0.2000000030E+00   0.1007424340E+00   0.0000000000E+00   0.7424329618E-03   0.0000000000E+00   0.0000000000E+00   0.1086040116E+01   0.7329923951E-04   0.0000000000E+00   0.2944005905E-03
  -0.1899067107E+00   0.9078082999E-01   0.9328730540E-04   0.7808263895E-03   0.0000000000E+00   0.0000000000E+00   0.1024114096E+01  -0.8427225338E-03   0.0000000000E+00  -0.7968605400E-03
  -0.1899012132E+00   0.1007396718E+00   0.9878478925E-04   0.7396708075E-03   0.0000000000E+00   0.0000000000E+00   0.1085295485E+01   0.2013065159E-03   0.0000000000E+00  -0.3330481965E-03
  -0.2000000030E+00   0.9078363301E-01   0.0000000000E+00   0.7836369065E-03   0.0000000000E+00   0.0000000000E+00   0.1025217708E+01  -0.7103066305E-03   0.0000000000E+00  -0.1112831749E-03
  -0.1363564004E-01  -0.1055015867E-01   0.9632687609E-03   0.3199171256E-03   0.0000000000E+00   0.0000000000E+00   0.5905476792E+00   0.3826894982E+00   0.0000000000E+00   0.5461826516E+00
  -0.1493894569E-01  -0.6160852117E-02   0.1040107813E-02   0.3364583529E-03   0.0000000000E+00   0.0000000000E+00   0.9417930662E+00   0.2785005792E+00   0.0000000000E+00   0.6045720354E+00
  -0.1622291772E-01  -0.9966489690E-02   0.9620773819E-03   0.3514291101E-03   0.0000000000E+00   0.0000000000E+00   0.6980133547E+00   0.3225254849E+00   0.0000000000E+00   0.5389221735E+00
  -0.1428593074E-01  -0.8353911899E-02   0.1003049955E-02   0.3297807608E-03   0.0000000000E+00   0.0000000000E+00   0.7696901176E+00   0.3414756489E+00   0.0000000000E+00   0.5898755193E+00
  -0.1687773162E-01  -0.7773371685E-02   0.9973362777E-03   0.3581640350E-03   0.0000000000E+00   0.0000000000E+00   0.8341668647E+00   0.2528638336E+00   0.0000000000E+00   0.5499829504E+00
   0.8806247036E-03   0.2284088598E-03   0.1455417963E-02   0.5751358282E-04   0.0000000000E+00   0.0000000000E+00   0.8497791451E+01   0.2277372469E+01   0.0000000000E+00   0.9625549784E+00
   0.7860604917E-03   0.4140637606E-03   0.1459365037E-02   0.6123982859E-04   0.0000000000E+00   0.0000000000E+00   0.8131518872E+01   0.2733834781E+01   0.0000000000E+00  -0.1254755529E+00
   0.9743427862E-03   0.3905811223E-03   0.1469616522E-02   0.5250357727E-04   0.0000000000E+00   0.0000000000E+00   0.8011869568E+01   0.2926798785E+01   0.0000000000E+00   0.4536835124E-01
  -0.4385193911E-03   0.4163075183E-03   0.1404070429E-02   0.1059322503E-03   0.0000000000E+00   0.0000000000E+00   0.4256595388E+01   0.9521229686E+00   0.0000000000E+00   0.1111637050E+01
  -0.2822785303E-04  -0.7902753162E-04   0.1393917197E-02   0.9580430038E-04   0.0000000000E+00   0.0000000000E+00   0.4137658126E+01   0.1350992538E+01   0.0000000000E+00   0.1952416768E+01
   0.1627894645E-03   0.4388675890E-03   0.1428617725E-02   0.8663568702E-04   0.0000000000E+00   0.0000000000E+00   0.5394586403E+01   0.1214640837E+01   0.0000000000E+00   0.9586638568E+00
  -0.2323530145E-03   0.1691103853E-03   0.1400014476E-02   0.1013386673E-03   0.0000000000E+00   0.0000000000E+00   0.4277880548E+01   0.1161356741E+01   0.0000000000E+00   0.1482467500E+01
   0.6762908954E-04   0.1804074721E-03   0.1411615810E-02   0.9170743700E-04   0.0000000000E+00   0.0000000000E+00   0.4782578417E+01   0.1271174165E+01   0.0000000000E+00   0.1548459279E+01
  -0.1385630567E-03   0.4281572411E-03   0.1415645983E-02   0.9685367108E-04   0.0000000000E+00   0.0000000000E+00   0.4728948348E+01   0.1050844997E+01   0.0000000000E+00   0.1035653306E+01
  -0.5259613829E-02  -0.2833311325E-01   0.6639474611E-03   0.1790051454E-03   0.0000000000E+00   0.0000000000E+00   0.2194294959E-02  -0.1284624660E+00   0.0000000000E+00  -0.7699086022E-02
   0.7199557622E-03  -0.2493949325E-01   0.7199557622E-03   0.8520394760E-04   0.0000000000E+00   0.0000000000E+00  -0.1556615614E-02  -0.3131979760E+00   0.0000000000E+00  -0.5241300476E-02
  -0.2270766892E-02  -0.2663486411E-01   0.6910137481E-03   0.1335445934E-03   0.0000000000E+00   0.0000000000E+00   0.2413114265E-02  -0.2176577204E+00   0.0000000000E+00  -0.5494105468E-02
  -0.1759296876E-02  -0.2352261332E-01   0.7385603242E-03   0.1202917795E-03   0.0000000000E+00   0.0000000000E+00   0.2020584781E-02  -0.2180994442E+00   0.0000000000E+00  -0.1008284167E-02
  -0.4749878662E-02  -0.2521809355E-01   0.7097591884E-03   0.1685230510E-03   0.0000000000E+00   0.0000000000E+00   0.1191300271E-02  -0.1280731179E+00   0.0000000000E+00  -0.2524315230E-02
   0.6228497297E-03  -0.3175946983E-01   0.6228497297E-03   0.1036794653E-03   0.0000000000E+00   0.0000000000E+00  -0.9458462847E-03  -0.2775165109E+00   0.0000000000E+00  -0.4259886228E-02
  -0.2984475228E-02  -0.3388309756E-01   0.5911289517E-03   0.1553939388E-03   0.0000000000E+00   0.0000000000E+00   0.1914658548E-02  -0.1959343936E+00   0.0000000000E+00  -0.1077011845E-01
  -0.2319125607E-02  -0.3004748468E-01   0.6426550329E-03   0.1401482233E-03   0.0000000000E+00   0.0000000000E+00   0.1318455896E-02  -0.2041356652E+00   0.0000000000E+00  -0.6252112585E-02
  -0.5926346944E-02  -0.3217099940E-01   0.6110378757E-03   0.1919758043E-03   0.0000000000E+00   0.0000000000E+00   0.1099585550E-02  -0.1260212924E+00   0.0000000000E+00  -0.1381610523E-01
  -0.3264915016E-01  -0.2514052050E-01   0.6753187410E-03   0.5097349037E-03   0.0000000000E+00   0.0000000000E+00   0.3800353699E+00   0.1793325928E+00   0.0000000000E+00   0.2652573490E+00
  -0.2760670661E-01  -0.1892599684E-01   0.7724859925E-03   0.4648395583E-03   0.0000000000E+00   0.0000000000E+00   0.4782137128E+00   0.2061765115E+00   0.0000000000E+00   0.3448457680E+00
  -0.3523855562E-01  -0.1740409767E-01   0.7592448832E-03   0.5286973312E-03   0.0000000000E+00   0.0000000000E+00   0.5695395636E+00   0.1252594709E+00   0.0000000000E+00   0.3110259540E+00
  -0.3012945580E-01  -0.2203294897E-01   0.7223739966E-03   0.4875969299E-03   0.0000000000E+00   0.0000000000E+00   0.4203014851E+00   0.1849336647E+00   0.0000000000E+00   0.2981681763E+00
  -0.3142121851E-01  -0.1816342729E-01   0.7672789869E-03   0.4983884077E-03   0.0000000000E+00   0.0000000000E+00   0.5347460585E+00   0.1682908287E+00   0.0000000000E+00   0.3302766168E+00
  -0.3394263563E-01  -0.2127074163E-01   0.7185009697E-03   0.5207835670E-03   0.0000000000E+00   0.0000000000E+00   0.4745725343E+00   0.1560010270E+00   0.0000000000E+00   0.2930015025E+00
  -0.2000000030E+00  -0.7881839774E-01   0.0000000000E+00   0.1181600456E-02   0.0000000000E+00   0.0000000000E+00   0.1439024033E+00  -0.3578972095E-02   0.0000000000E+00   0.3608930623E-03
  -0.2000000030E+00  -0.6882543488E-01   0.0000000000E+00   0.1174565418E-02   0.0000000000E+00   0.0000000000E+00   0.1896534454E+00  -0.7958457352E-02   0.0000000000E+00   0.8601389967E-04
  -0.1908307103E+00  -0.7537005446E-01   0.1346772969E-04   0.1177851343E-02   0.0000000000E+00   0.0000000000E+00   0.1586063216E+00  -0.5485495282E-02   0.0000000000E+00   0.4045134793E-02
  -0.1799899167E+00  -0.9881810675E-01   0.1009031770E-04   0.1181894250E-02   0.0000000000E+00   0.0000000000E+00   0.5240393011E-01   0.9546385418E-03   0.0000000000E+00   0.8011035893E-03
  -0.1899908744E+00  -0.8881533146E-01   0.9123635314E-05   0.1184672138E-02   0.0000000000E+00   0.0000000000E+00   0.9860086403E-01  -0.1079181742E-02   0.0000000000E+00   0.1449451539E-02
  -0.1808241432E+00  -0.8536974833E-01   0.2002977068E-04   0.1178162870E-02   0.0000000000E+00   0.0000000000E+00   0.1127606310E+00  -0.2088304746E-02   0.0000000000E+00   0.5016551456E-02
  -0.2000000030E+00  -0.9881030707E-01   0.0000000000E+00   0.1189693929E-02   0.0000000000E+00   0.0000000000E+00   0.5728558980E-01   0.4254177920E-03   0.0000000000E+00  -0.4222741077E-03
  -0.2000000030E+00  -0.8881343448E-01   0.0000000000E+00   0.1186561615E-02   0.0000000000E+00   0.0000000000E+00   0.1005169116E+00  -0.1233518175E-02   0.0000000000E+00   0.1719403026E-03
  -0.1899948626E+00  -0.9881227594E-01   0.5135380564E-05   0.1187725063E-02   0.0000000000E+00   0.0000000000E+00   0.5572972399E-01   0.8958782033E-04   0.0000000000E+00   0.6032776394E-03
  -0.2452343462E-01  -0.2577470408E-01   0.6857444813E-03   0.4293921161E-03   0.0000000000E+00   0.0000000000E+00   0.2545500575E+00   0.2085430862E+00   0.0000000000E+00   0.2327916925E+00
  -0.1695191243E-01  -0.2544880773E-01   0.6995337675E-03   0.3405462729E-03   0.0000000000E+00   0.0000000000E+00   0.1270074475E+00   0.1673323935E+00   0.0000000000E+00   0.1538208470E+00
  -0.2051265151E-01  -0.1964396780E-01   0.7833485929E-03   0.3914629963E-03   0.0000000000E+00   0.0000000000E+00   0.3371490547E+00   0.2603482820E+00   0.0000000000E+00   0.3237736441E+00
  -0.2073679730E-01  -0.2560988501E-01   0.6935163033E-03   0.3868409946E-03   0.0000000000E+00   0.0000000000E+00   0.1992298211E+00   0.1937152217E+00   0.0000000000E+00   0.1987384361E+00
  -0.1873217233E-01  -0.2254579667E-01   0.7415517746E-03   0.3665957308E-03   0.0000000000E+00   0.0000000000E+00   0.2270335317E+00   0.2231063460E+00   0.0000000000E+00   0.2415991168E+00
  -0.2251968146E-01  -0.2270912579E-01   0.7329081356E-03   0.4106367112E-03   0.0000000000E+00   0.0000000000E+00   0.2850469207E+00   0.2233203856E+00   0.0000000000E+00   0.2692373866E+00
  -0.2917250499E-01  -0.3292730481E-01   0.5859893129E-03   0.4716772881E-03   0.0000000000E+00   0.0000000000E+00   0.1974375238E+00   0.1651405459E+00   0.0000000000E+00   0.1592625461E+00
  -0.2684956230E-01  -0.2935078863E-01   0.6342734969E-03   0.4507514739E-03   0.0000000000E+00   0.0000000000E+00   0.2185650548E+00   0.1791141975E+00   0.0000000000E+00   0.1896616657E+00
  -0.2858495143E-01  -0.2545570288E-01   0.6818716675E-03   0.4714719159E-03   0.0000000000E+00   0.0000000000E+00   0.3276554749E+00   0.1984250741E+00   0.0000000000E+00   0.2540420446E+00
  -0.3091025670E-01  -0.2903281527E-01   0.6312248961E-03   0.4918035324E-03   0.0000000000E+00   0.0000000000E+00   0.2868395156E+00   0.1780811588E+00   0.0000000000E+00   0.2162078928E+00
  -0.2405824743E-01  -0.1928301086E-01   0.7793488741E-03   0.4301227409E-03   0.0000000000E+00   0.0000000000E+00   0.4218767105E+00   0.2386993458E+00   0.0000000000E+00   0.3407737853E+00
  -0.2606420000E-01  -0.2234900464E-01   0.7299859010E-03   0.4484606582E-03   0.0000000000E+00   0.0000000000E+00   0.3645975394E+00   0.2151193547E+00   0.0000000000E+00   0.2948574765E+00
  -0.2490473946E-01  -0.4105543742E-01   0.4929989412E-03   0.4203726813E-03   0.0000000000E+00   0.0000000000E+00   0.7512814483E-01   0.9073338437E-01   0.0000000000E+00   0.4705784599E-01
  -0.2038520713E-01  -0.3257927453E-01   0.5985763683E-03   0.3756008677E-03   0.0000000000E+00   0.0000000000E+00   0.9469948615E-01   0.1200336250E+00   0.0000000000E+00   0.9256877492E-01
  -0.2264662252E-01  -0.3681702777E-01   0.5441384763E-03   0.3983168267E-03   0.0000000000E+00   0.0000000000E+00   0.8199450945E-01   0.1016670983E+00   0.0000000000E+00   0.6680734898E-01
  -0.2477806377E-01  -0.3275156883E-01   0.5930742290E-03   0.4253599696E-03   0.0000000000E+00   0.0000000000E+00   0.1513818164E+00   0.1460784450E+00   0.0000000000E+00   0.1288678669E+00
  -0.2703899734E-01  -0.3699122957E-01   0.5391181592E-03   0.4461647336E-03   0.0000000000E+00   0.0000000000E+00   0.1339582119E+00   0.1303581928E+00   0.0000000000E+00   0.1042127216E+00
  -0.1230263977E-01  -0.3096964456E-01   0.6236994328E-03   0.2760285376E-03   0.0000000000E+00   0.0000000000E+00   0.2887038878E-01   0.1670352322E-01   0.0000000000E+00   0.2867332884E-01
  -0.9447077787E-02  -0.3349062323E-01   0.5916957129E-03   0.2391311676E-03   0.0000000000E+00   0.0000000000E+00   0.1549715157E-01  -0.5101594875E-01   0.0000000000E+00   0.4193774406E-02
  -0.1373813944E-01  -0.3513247148E-01   0.5688398650E-03   0.2936944184E-03   0.0000000000E+00   0.0000000000E+00   0.2414448207E-01   0.7416456285E-02   0.0000000000E+00   0.1266160268E-01
   0.3990040560E-03  -0.5070050125E-01   0.3990040560E-03   0.1430616525E-03   0.0000000000E+00   0.0000000000E+00  -0.7795617502E-05  -0.1747141830E+00   0.0000000000E+00  -0.4155245220E-02
   0.5165419545E-03  -0.4021533517E-01   0.5165419545E-03   0.1234530313E-03   0.0000000000E+00   0.0000000000E+00  -0.4542605750E-03  -0.2319753017E+00   0.0000000000E+00  -0.3856218515E-02
  -0.4015935422E-02  -0.4814689268E-01   0.4231032678E-03   0.1875047197E-03   0.0000000000E+00   0.0000000000E+00   0.4253365497E-03  -0.1365782490E+00   0.0000000000E+00  -0.1668589578E-01
   0.4562212468E-03  -0.4545733497E-01   0.4562212468E-03   0.1338406303E-03   0.0000000000E+00   0.0000000000E+00  -0.8432933480E-03  -0.2061102013E+00   0.0000000000E+00  -0.3893709601E-02
  -0.3957684688E-02  -0.4290167062E-01   0.4813540025E-03   0.1803356826E-03   0.0000000000E+00   0.0000000000E+00   0.1503296190E-02  -0.1615861312E+00   0.0000000000E+00  -0.1637812361E-01
  -0.1435705807E-01  -0.7403318879E-01   0.1638404263E-03   0.3082574133E-03   0.0000000000E+00   0.0000000000E+00  -0.5638980701E-02  -0.2328958160E-01   0.0000000000E+00  -0.4581449783E-01
   0.2666491375E-03  -0.6370338583E-01   0.2666491375E-03   0.1598841691E-03   0.0000000000E+00   0.0000000000E+00   0.4976598145E-03  -0.1055691535E+00   0.0000000000E+00  -0.5421884577E-02
  -0.1080807517E-01  -0.5773839657E-01   0.3205115326E-03   0.2678341340E-03   0.0000000000E+00   0.0000000000E+00  -0.1328516762E-03  -0.6204862852E-01   0.0000000000E+00  -0.4064928076E-01
  -0.7046521660E-02  -0.6886732962E-01   0.2139275696E-03   0.2350321818E-03   0.0000000000E+00   0.0000000000E+00  -0.1185327201E-02  -0.6309344482E-01   0.0000000000E+00  -0.2418587864E-01
  -0.5271097173E-02  -0.6072207931E-01   0.2931961869E-03   0.2126728897E-03   0.0000000000E+00   0.0000000000E+00  -0.3107107064E-03  -0.8569276394E-01   0.0000000000E+00  -0.2209959329E-01
  -0.1258401479E-01  -0.6588476454E-01   0.2407273126E-03   0.2890720566E-03   0.0000000000E+00   0.0000000000E+00  -0.2698414457E-02  -0.4157177423E-01   0.0000000000E+00  -0.4344249826E-01
  -0.1918474733E-01  -0.4958092489E-01   0.4013296682E-03   0.3552542076E-03   0.0000000000E+00   0.0000000000E+00   0.1717702239E-01   0.5352938923E-02   0.0000000000E+00  -0.2385553248E-01
  -0.2462919523E-01  -0.6277110660E-01   0.2683335701E-03   0.4103757049E-03   0.0000000000E+00   0.0000000000E+00   0.6280901051E-02   0.9735495183E-02   0.0000000000E+00  -0.4251136443E-01
  -0.2190870538E-01  -0.5617537906E-01   0.3330975194E-03   0.3834534372E-03   0.0000000000E+00   0.0000000000E+00   0.1187084738E-01   0.8408162165E-02   0.0000000000E+00  -0.3328036776E-01
  -0.1771927274E-01  -0.6025370324E-01   0.2937854595E-03   0.3401551559E-03   0.0000000000E+00   0.0000000000E+00   0.4413573187E-02  -0.2650401086E-01   0.0000000000E+00  -0.4253210753E-01
  -0.1499713184E-01  -0.5366062359E-01   0.3602004554E-03   0.3105813126E-03   0.0000000000E+00   0.0000000000E+00   0.7649326696E-02  -0.2994347481E-01   0.0000000000E+00  -0.3137241764E-01
  -0.2007320346E-01  -0.9963895500E-01  -0.7320385686E-04   0.3610460030E-03   0.0000000000E+00   0.0000000000E+00  -0.3317857227E-01   0.2431559101E-02   0.0000000000E+00  -0.9187520481E-02
  -0.7549254170E-04  -0.9982757817E-01  -0.7549254170E-04   0.1724228314E-03   0.0000000000E+00   0.0000000000E+00   0.2933418820E-02   0.2101998043E-02   0.0000000000E+00   0.4080786867E-02
   0.1126320421E-03  -0.7982983820E-01   0.1126320421E-03   0.1701599991E-03   0.0000000000E+00   0.0000000000E+00   0.1488100172E-02  -0.3260325227E-01   0.0000000000E+00  -0.7065386623E-02
  -0.1007501107E-01  -0.9973344740E-01  -0.7501128704E-04   0.2665535972E-03   0.0000000000E+00   0.0000000000E+00  -0.1142320314E-01   0.2351961610E-02   0.0000000000E+00  -0.3194115912E-02
   0.1874090885E-04  -0.8982804806E-01   0.1874090885E-04   0.1719480396E-03   0.0000000000E+00   0.0000000000E+00   0.2165292401E-02  -0.1039875929E-01   0.0000000000E+00  -0.3351775226E-02
  -0.9981360903E-02  -0.8973335450E-01   0.1863887674E-04   0.2666490956E-03   0.0000000000E+00   0.0000000000E+00  -0.9108751041E-02  -0.1073557967E-01   0.0000000000E+00  -0.1124708389E-01
  -0.7777896690E-03  -0.1261408439E-02   0.1311668381E-02   0.1143869007E-03   0.0000000000E+00   0.0000000000E+00   0.1829894385E+01   0.1552787514E+01   0.0000000000E+00   0.1726219135E+01
  -0.1164669935E-02  -0.2516056534E-02   0.1245411045E-02   0.1152119261E-03   0.0000000000E+00   0.0000000000E+00   0.7209053421E+00   0.1230793352E+01   0.0000000000E+00   0.1019352487E+01
  -0.9728308491E-03  -0.1888712050E-02   0.1276938551E-02   0.1148198504E-03   0.0000000000E+00   0.0000000000E+00   0.1199008885E+01   0.1379054623E+01   0.0000000000E+00   0.1352316166E+01
  -0.4827194987E-03  -0.2241188773E-02   0.1260828121E-02   0.9268999750E-04   0.0000000000E+00   0.0000000000E+00   0.5302918071E+00   0.1248485472E+01   0.0000000000E+00   0.8761636595E+00
  -0.2873090844E-03  -0.1613936558E-02   0.1295926956E-02   0.9220565182E-04   0.0000000000E+00   0.0000000000E+00   0.9277007850E+00   0.1526510234E+01   0.0000000000E+00   0.1206821200E+01
   0.8391873833E-03   0.4886892833E-04   0.1438715813E-02   0.6144418233E-04   0.0000000000E+00   0.0000000000E+00   0.6377180266E+01   0.1856751817E+01   0.0000000000E+00   0.2601795597E+01
   0.6942950238E-03   0.1621984017E-03   0.1439361233E-02   0.6759730297E-04   0.0000000000E+00   0.0000000000E+00   0.6793660271E+01   0.1503279772E+01   0.0000000000E+00   0.1753164375E+01
   0.1284988606E-02   0.6064110266E-03   0.1491685887E-02   0.4350010457E-04   0.0000000000E+00   0.0000000000E+00   0.6992627032E+01   0.5435528477E+01   0.0000000000E+00  -0.7634306298E+00
   0.1841943492E-02   0.5473113801E-03   0.1514326504E-02   0.4505685713E-04   0.0000000000E+00   0.0000000000E+00   0.8303445974E+01   0.5498549457E+01   0.0000000000E+00   0.1696395530E+01
   0.1664946111E-02   0.6212310114E-03   0.1506142195E-02   0.4298033345E-04   0.0000000000E+00   0.0000000000E+00   0.6804962222E+01   0.5573284422E+01   0.0000000000E+00   0.5750756331E+00
   0.1796080175E-02   0.7549136975E-03   0.1510271188E-02   0.4838841047E-04   0.0000000000E+00   0.0000000000E+00   0.6873321969E+01   0.5579677893E+01   0.0000000000E+00   0.1245777718E+01
   0.2097906335E-03   0.6683834348E-03   0.1440684294E-02   0.8324044579E-04   0.0000000000E+00   0.0000000000E+00   0.5618675665E+01   0.1535261893E+01   0.0000000000E+00   0.3205576071E+00
   0.4258094999E-03   0.5196934849E-03   0.1444631460E-02   0.7620125487E-04   0.0000000000E+00   0.0000000000E+00   0.6260457741E+01   0.1720194051E+01   0.0000000000E+00   0.3442872479E+00
   0.6017342965E-03   0.3467809021E-03   0.1445311791E-02   0.7025114807E-04   0.0000000000E+00   0.0000000000E+00   0.6565042960E+01   0.1748142667E+01   0.0000000000E+00   0.8768524830E+00
   0.2006424771E-02   0.7986425639E-03   0.1518355630E-02   0.5466134586E-04   0.0000000000E+00   0.0000000000E+00   0.6565792663E+01   0.4163023552E+01   0.0000000000E+00   0.1037268322E+01
   0.2054453017E-02   0.5937833065E-03   0.1524575874E-02   0.5407285255E-04   0.0000000000E+00   0.0000000000E+00   0.7732545753E+01   0.3998342552E+01   0.0000000000E+00   0.1289408068E+01
   0.2210877051E-02   0.1128150254E-02   0.1521945903E-02   0.6415996398E-04   0.0000000000E+00   0.0000000000E+00   0.5662438577E+01   0.3645476693E+01   0.0000000000E+00   0.1089409530E+01
   0.2361427516E-02   0.1328830797E-02   0.1524841053E-02   0.6989769704E-04   0.0000000000E+00   0.0000000000E+00   0.5171548324E+01   0.3216981549E+01   0.0000000000E+00   0.9579053407E+00
   0.2458787971E-02   0.1056738141E-02   0.1532754494E-02   0.7074204155E-04   0.0000000000E+00   0.0000000000E+00   0.5852797040E+01   0.2900902222E+01   0.0000000000E+00   0.9116569164E+00
   0.4290823845E-02   0.1983828096E-02   0.1576596425E-02   0.1188968961E-03   0.0000000000E+00   0.0000000000E+00   0.3839842877E+01   0.1063408745E+01   0.0000000000E+00   0.1671138787E+00
   0.4018003334E-02   0.9021481875E-03   0.1597238684E-02   0.1185347705E-03   0.0000000000E+00   0.0000000000E+00   0.3921280610E+01   0.8082191687E+00   0.0000000000E+00  -0.6111464572E+00
   0.3780897947E-02   0.1679907587E-02   0.1567298557E-02   0.1076925868E-03   0.0000000000E+00   0.0000000000E+00   0.4208713620E+01   0.1216237909E+01   0.0000000000E+00   0.1846337331E+00
   0.3643842914E-02   0.1138441566E-02   0.1576975024E-02   0.1068853961E-03   0.0000000000E+00   0.0000000000E+00   0.4429252554E+01   0.1146521844E+01   0.0000000000E+00  -0.1581573664E+00
   0.4152888807E-02   0.1442714764E-02   0.1585392657E-02   0.1184425141E-03   0.0000000000E+00   0.0000000000E+00   0.3941002074E+01   0.9867298487E+00   0.0000000000E+00  -0.1575665691E+00
   0.1996204308E-02   0.4245675815E-03   0.1527057721E-02   0.5107864947E-04   0.0000000000E+00   0.0000000000E+00   0.7969868673E+01   0.3234661512E+01   0.0000000000E+00   0.2137215047E+00
   0.1962200032E-02  -0.4398431809E-03   0.1603651988E-02   0.4081865709E-04   0.0000000000E+00   0.0000000000E+00   0.1417189023E+01   0.3545590478E+01   0.0000000000E+00  -0.2250235740E+01
   0.2355000806E-02  -0.2937402843E-03   0.1598422286E-02   0.6940735865E-04   0.0000000000E+00   0.0000000000E+00   0.3852269392E+01   0.1930893238E+01   0.0000000000E+00  -0.3337757492E+01
   0.2082084831E-02  -0.2887420441E-03   0.1590383357E-02   0.5451030793E-04   0.0000000000E+00   0.0000000000E+00   0.3407813627E+01   0.3328834202E+01   0.0000000000E+00  -0.3244063890E+01
   0.2259216275E-02  -0.4565725914E-03   0.1610760406E-02   0.6145830255E-04   0.0000000000E+00   0.0000000000E+00   0.3303797515E+01   0.3600021960E+01   0.0000000000E+00  -0.2629775674E+01
   0.4085212736E-02  -0.2625387072E-02   0.1759466966E-02   0.1113902279E-03   0.0000000000E+00   0.0000000000E+00   0.6070816927E+00   0.1178453171E+01   0.0000000000E+00  -0.9227176325E+00
   0.4442047281E-02  -0.2258888968E-02   0.1743999731E-02   0.1264842620E-03   0.0000000000E+00   0.0000000000E+00   0.1032348683E+01   0.1229889838E+01   0.0000000000E+00  -0.1171064805E+01
   0.4802464304E-02  -0.2759824350E-02   0.1768382064E-02   0.1332314403E-03   0.0000000000E+00   0.0000000000E+00   0.8925795652E+00   0.1150957057E+01   0.0000000000E+00  -0.1070581679E+01
  -0.6555369533E-03  -0.2992162534E-02   0.1224248727E-02   0.9218388620E-04   0.0000000000E+00   0.0000000000E+00   0.3092208023E+00   0.9034146554E+00   0.0000000000E+00   0.5859975695E+00
   0.1106939795E-02  -0.6203940956E-02   0.1106939795E-02   0.2345267374E-04   0.0000000000E+00   0.0000000000E+00  -0.8714400165E-02  -0.4010539901E+00   0.0000000000E+00  -0.1918851957E-01
   0.2710725994E-03  -0.5690015124E-02   0.1121698343E-02   0.4942415615E-04   0.0000000000E+00   0.0000000000E+00   0.1163461686E-01  -0.1066506374E+00   0.0000000000E+00   0.4355046149E-01
   0.1137879718E-02  -0.5264264392E-02   0.1137879718E-02   0.1984755847E-04   0.0000000000E+00   0.0000000000E+00  -0.1522668785E-01  -0.4200151484E+00   0.0000000000E+00  -0.2561728302E-01
   0.2937857528E-02  -0.2756943546E-02   0.1764243468E-02   0.6465954361E-04   0.0000000000E+00   0.0000000000E+00   0.6855712078E-01   0.5740957669E+00   0.0000000000E+00  -0.2698871211E+00
   0.4463377460E-02  -0.5570032733E-02   0.1875874640E-02   0.1044365473E-03   0.0000000000E+00   0.0000000000E+00   0.1091592350E+00   0.3485997613E+00   0.0000000000E+00  -0.2474819027E+00
   0.3708929405E-02  -0.6279621848E-02   0.1898392335E-02   0.7963123249E-04   0.0000000000E+00   0.0000000000E+00   0.5366264716E-02   0.7577853734E-01   0.0000000000E+00  -0.7659617838E-01
   0.4698884948E-02  -0.6624736074E-02   0.1909721218E-02   0.1077203158E-03   0.0000000000E+00   0.0000000000E+00   0.8364843936E-01   0.2797673550E+00   0.0000000000E+00  -0.2063225565E+00
  -0.1826189091E-02  -0.3957097434E-02   0.1182220079E-02   0.1246603058E-03   0.0000000000E+00   0.0000000000E+00   0.3676778330E+00   0.8448421375E+00   0.0000000000E+00   0.6339332767E+00
  -0.9860023018E-03  -0.3710842144E-02   0.1192947468E-02   0.9874891565E-04   0.0000000000E+00   0.0000000000E+00   0.2395557455E+00   0.6828804154E+00   0.0000000000E+00   0.4530069549E+00
  -0.1497070490E-02  -0.3236677119E-02   0.1212174590E-02   0.1198359814E-03   0.0000000000E+00   0.0000000000E+00   0.4815909227E+00   0.9653027411E+00   0.0000000000E+00   0.7758540563E+00
   0.1388178160E-04  -0.6732447675E-02   0.1088530822E-02   0.5768272501E-04   0.0000000000E+00   0.0000000000E+00   0.1099335040E-01  -0.1550290744E+00   0.0000000000E+00   0.3180082991E-01
   0.4382881819E-02  -0.3358898159E-02   0.1792792479E-02   0.1150463408E-03   0.0000000000E+00   0.0000000000E+00   0.3984045560E+00   0.9107706716E+00   0.0000000000E+00  -0.6937446080E+00
   0.3589071852E-02  -0.3067560671E-02   0.1779109522E-02   0.8897767931E-04   0.0000000000E+00   0.0000000000E+00   0.2578667104E+00   0.8380495848E+00   0.0000000000E+00  -0.5223242136E+00
  -0.1195243319E-02  -0.4565957477E-02   0.1159586951E-02   0.1006638526E-03   0.0000000000E+00   0.0000000000E+00   0.1693191136E+00   0.5461764901E+00   0.0000000000E+00   0.3604207232E+00
  -0.1995069105E-04  -0.7899787039E-02   0.1054698349E-02   0.5945401057E-04   0.0000000000E+00   0.0000000000E+00   0.7697127635E-02  -0.1661372358E+00   0.0000000000E+00   0.2807133671E-01
   0.1071835976E-02  -0.7368866368E-02   0.1071835976E-02   0.2763838158E-04   0.0000000000E+00   0.0000000000E+00  -0.9184322664E-02  -0.4065053303E+00   0.0000000000E+00  -0.1700876888E-01
   0.1116870827E-01  -0.1162758892E-01   0.2045035544E-02   0.2345381769E-03   0.0000000000E+00   0.0000000000E+00   0.2405057505E+00   0.3722089228E+00   0.0000000000E+00  -0.3587237171E+00
   0.9345167652E-02  -0.8643431503E-02   0.1970961562E-02   0.2099015670E-03   0.0000000000E+00   0.0000000000E+00   0.3285502667E+00   0.4956314211E+00   0.0000000000E+00  -0.4746438364E+00
   0.7586771742E-02  -0.1101672529E-01   0.2028189722E-02   0.1665757146E-03   0.0000000000E+00   0.0000000000E+00   0.7935987177E-01   0.2163971915E+00   0.0000000000E+00  -0.1840605040E+00
   0.1025829593E-01  -0.1013535445E-01   0.2009356755E-02   0.2223756550E-03   0.0000000000E+00   0.0000000000E+00   0.2675220763E+00   0.4138369465E+00   0.0000000000E+00  -0.4016547744E+00
   0.8466390048E-02  -0.9830228102E-02   0.1999995758E-02   0.1880888985E-03   0.0000000000E+00   0.0000000000E+00   0.1947532955E+00   0.3685243024E+00   0.0000000000E+00  -0.3276662437E+00
   0.9377459891E-02  -0.1132059536E-01   0.2036332511E-02   0.2021186370E-03   0.0000000000E+00   0.0000000000E+00   0.1695066242E+00   0.3020004052E+00   0.0000000000E+00  -0.2784676523E+00
  -0.3848991204E-02  -0.4082737659E-02   0.1170943176E-02   0.1772333113E-03   0.0000000000E+00   0.0000000000E+00   0.8254819410E+00   0.8528333435E+00   0.0000000000E+00   0.9219010278E+00
  -0.2722822024E-02  -0.2671738121E-02   0.1229382696E-02   0.1584929789E-03   0.0000000000E+00   0.0000000000E+00   0.1190388405E+01   0.1026826779E+01   0.0000000000E+00   0.1179542892E+01
  -0.2836728215E-02  -0.4017870804E-02   0.1177443445E-02   0.1529935465E-03   0.0000000000E+00   0.0000000000E+00   0.6484211415E+00   0.8856617333E+00   0.0000000000E+00   0.8186314887E+00
  -0.2273784196E-02  -0.3313422920E-02   0.1206522634E-02   0.1425715003E-03   0.0000000000E+00   0.0000000000E+00   0.7556906951E+00   0.9989294012E+00   0.0000000000E+00   0.9358697167E+00
  -0.3287156648E-02  -0.3377032690E-02   0.1198912902E-02   0.1680683403E-03   0.0000000000E+00   0.0000000000E+00   0.9632550899E+00   0.8918233225E+00   0.0000000000E+00   0.1013063330E+01
  -0.1391573767E-02  -0.8558014511E-02   0.1035239593E-02   0.9605464932E-04   0.0000000000E+00   0.0000000000E+00   0.4472118293E-02   0.1372592670E-01   0.0000000000E+00   0.5937525068E-01
   0.2108455356E-02  -0.1500108716E-01   0.2108455356E-02   0.5436253997E-04   0.0000000000E+00   0.0000000000E+00  -0.2097968091E-02  -0.3624535847E+00   0.0000000000E+00   0.7081525769E-02
   0.2071577320E-02  -0.1321127894E-01   0.2071577320E-02   0.4826046109E-04   0.0000000000E+00   0.0000000000E+00  -0.3666797081E-02  -0.3759795037E+00   0.0000000000E+00   0.8405794733E-02
   0.3658951008E-02  -0.1408889867E-01   0.2092496708E-02   0.8349512943E-04   0.0000000000E+00   0.0000000000E+00   0.2643351112E-02  -0.2275862888E+00   0.0000000000E+00  -0.8753744029E-02
   0.1523997316E-01  -0.1166540815E-01   0.2054270863E-02   0.2991281535E-03   0.0000000000E+00   0.0000000000E+00   0.4538157686E+00   0.3954418609E+00   0.0000000000E+00  -0.4874699922E+00
   0.1326030865E-01  -0.1534055334E-01   0.2124556346E-02   0.2609363559E-03   0.0000000000E+00   0.0000000000E+00   0.1779288865E+00   0.2746579168E+00   0.0000000000E+00  -0.2661547587E+00
   0.1664717675E-01  -0.1358806085E-01   0.2096100648E-02   0.3149926510E-03   0.0000000000E+00   0.0000000000E+00   0.3856512243E+00   0.3426307029E+00   0.0000000000E+00  -0.4211372028E+00
   0.1425010442E-01  -0.1350254648E-01   0.2089376616E-02   0.2804669240E-03   0.0000000000E+00   0.0000000000E+00   0.3096461119E+00   0.3479102169E+00   0.0000000000E+00  -0.3812779807E+00
   0.1565521883E-01  -0.1542420320E-01   0.2129118125E-02   0.2973264997E-03   0.0000000000E+00   0.0000000000E+00   0.2740571064E+00   0.3044545077E+00   0.0000000000E+00  -0.3299357221E+00
  -0.3763896745E-02  -0.7960827049E-02   0.1050238165E-02   0.1566121811E-03   0.0000000000E+00   0.0000000000E+00   0.1509803870E+00   0.4007140776E+00   0.0000000000E+00   0.3106180961E+00
  -0.2734079066E-02  -0.8907191001E-02   0.1025152814E-02   0.1291646490E-03   0.0000000000E+00   0.0000000000E+00   0.7537949634E-01   0.2004595451E+00   0.0000000000E+00   0.1739823585E+00
  -0.2420933419E-02  -0.7610750748E-02   0.1060782961E-02   0.1244019824E-03   0.0000000000E+00   0.0000000000E+00   0.8815534963E-01   0.2419824979E+00   0.0000000000E+00   0.2005913493E+00
  -0.2080292585E-02  -0.1145796436E-01   0.9629864648E-03   0.1114732450E-03   0.0000000000E+00   0.0000000000E+00   0.3325678473E-02  -0.4689502611E-01   0.0000000000E+00   0.3988025053E-01
   0.4062174979E-02  -0.1609040077E-01   0.2132653649E-02   0.9492203476E-04   0.0000000000E+00   0.0000000000E+00   0.3590712038E-02  -0.2355005529E+00   0.0000000000E+00  -0.4527467814E-02
   0.2151029613E-02  -0.1721975565E-01   0.2151029613E-02   0.6156054648E-04   0.0000000000E+00   0.0000000000E+00  -0.2728075785E-02  -0.3557573476E+00   0.0000000000E+00   0.6649446944E-02
   0.6051292709E-02  -0.1047694022E-01   0.2014571869E-02   0.1339438753E-03   0.0000000000E+00   0.0000000000E+00   0.4779257194E-01   0.9074309288E-01   0.0000000000E+00  -0.1180066613E+00
   0.6398143955E-02  -0.1209649542E-01   0.2052398645E-02   0.1398240820E-03   0.0000000000E+00   0.0000000000E+00   0.4087176425E-01   0.6651387367E-01   0.0000000000E+00  -0.1021212329E+00
  -0.5066602954E-02  -0.1072429735E-01   0.9785103660E-03   0.1773204548E-03   0.0000000000E+00   0.0000000000E+00   0.1085746978E+00   0.2748666999E+00   0.0000000000E+00   0.2289284213E+00
  -0.3761720557E-02  -0.1189487185E-01   0.9519507226E-03   0.1477381530E-03   0.0000000000E+00   0.0000000000E+00   0.5533500085E-01   0.1096626175E+00   0.0000000000E+00   0.1262059957E+00
  -0.3384835829E-02  -0.1028666996E-01   0.9898852608E-03   0.1417754413E-03   0.0000000000E+00   0.0000000000E+00   0.6241796517E-01   0.1355188963E+00   0.0000000000E+00   0.1443343563E+00
  -0.2887796208E-02  -0.1506918241E-01   0.8853594121E-03   0.1290604889E-03   0.0000000000E+00   0.0000000000E+00   0.2468105451E-02  -0.8703079890E-01   0.0000000000E+00   0.2433198040E-01
   0.5612560361E-02  -0.1517851422E-01   0.2116584731E-02   0.1237526750E-03   0.0000000000E+00   0.0000000000E+00   0.2153527186E-02  -0.1082183837E+00   0.0000000000E+00  -0.1920431205E-01
   0.6415244662E-02  -0.8188458616E-02   0.1955861692E-02   0.1474931044E-03   0.0000000000E+00   0.0000000000E+00   0.1125677362E+00   0.3358715041E+00   0.0000000000E+00  -0.2555688722E+00
   0.5935970571E-02  -0.7052262098E-02   0.1923214521E-02   0.1395500524E-03   0.0000000000E+00   0.0000000000E+00   0.1253002306E+00   0.3963652241E+00   0.0000000000E+00  -0.2939927544E+00
   0.5179101487E-02  -0.7758879082E-02   0.1943311077E-02   0.1177163975E-03   0.0000000000E+00   0.0000000000E+00   0.6905624775E-01   0.1910216574E+00   0.0000000000E+00  -0.1677358161E+00
  -0.6596686678E-02  -0.1421193540E-01   0.9005988125E-03   0.2001975959E-03   0.0000000000E+00   0.0000000000E+00   0.7941531503E-01   0.1802781810E+00   0.0000000000E+00   0.1653890584E+00
  -0.5805357576E-02  -0.1785991073E-01   0.8304126239E-03   0.1825586737E-03   0.0000000000E+00   0.0000000000E+00   0.3353042677E-01   0.6202800922E-02   0.0000000000E+00   0.6753944382E-01
  -0.4958018298E-02  -0.1564416514E-01   0.8726654520E-03   0.1683436570E-03   0.0000000000E+00   0.0000000000E+00   0.4090409501E-01   0.4397353972E-01   0.0000000000E+00   0.8816408497E-01
  -0.7446099233E-02  -0.1642994906E-01   0.8562727166E-03   0.2121446432E-03   0.0000000000E+00   0.0000000000E+00   0.6058314480E-01   0.1315072584E+00   0.0000000000E+00   0.1313174180E+00
  -0.1714769684E-02  -0.2076948375E-01   0.7830875162E-03   0.1146650544E-03   0.0000000000E+00   0.0000000000E+00   0.3096843967E-02  -0.2267558209E+00   0.0000000000E+00  -0.2556147633E-04
  -0.3778792148E-02  -0.1958893117E-01   0.8011058217E-03   0.1480666289E-03   0.0000000000E+00   0.0000000000E+00   0.1685162839E-02  -0.1141156035E+00   0.0000000000E+00   0.1021721321E-01
   0.2236892823E-02  -0.2218890267E-01   0.2236892823E-02   0.7703822627E-04   0.0000000000E+00   0.0000000000E+00  -0.1996677174E-02  -0.3302812960E+00   0.0000000000E+00   0.5404516141E-02
   0.7002380106E-02  -0.9602500353E-02   0.1993397616E-02   0.1571259966E-03   0.0000000000E+00   0.0000000000E+00   0.8565055627E-01   0.2595497972E+00   0.0000000000E+00  -0.2101731820E+00
   0.5465967665E-02  -0.9064875343E-02   0.1978846355E-02   0.1223340774E-03   0.0000000000E+00   0.0000000000E+00   0.5669688436E-01   0.1511246838E+00   0.0000000000E+00  -0.1438565090E+00
  -0.9052648891E-02  -0.1098675437E-01   0.9679769093E-03   0.2515989286E-03   0.0000000000E+00   0.0000000000E+00   0.3335014543E+00   0.4210979395E+00   0.0000000000E+00   0.4392687412E+00
  -0.7825026109E-02  -0.1259935194E-01   0.9339295306E-03   0.2258912647E-03   0.0000000000E+00   0.0000000000E+00   0.1975843600E+00   0.3150771396E+00   0.0000000000E+00   0.3016226547E+00
  -0.5833061657E-02  -0.1246797718E-01   0.9381377533E-03   0.1888978232E-03   0.0000000000E+00   0.0000000000E+00   0.8365908608E-01   0.2127689394E+00   0.0000000000E+00   0.1881788011E+00
  -0.7058970316E-02  -0.1085353012E-01   0.9738992336E-03   0.2164549829E-03   0.0000000000E+00   0.0000000000E+00   0.2323433650E+00   0.3605753280E+00   0.0000000000E+00   0.3441386962E+00
   0.7631161353E-03  -0.2218889278E-01   0.7631161353E-03   0.7704811668E-04   0.0000000000E+00   0.0000000000E+00  -0.2671123592E-02  -0.3306509882E+00   0.0000000000E+00  -0.5940499000E-02
   0.2330131796E-02  -0.2834929457E-01   0.2330131796E-02   0.9462862785E-04   0.0000000000E+00   0.0000000000E+00  -0.1368159011E-02  -0.2979758412E+00   0.0000000000E+00   0.4517340269E-02
   0.9593455852E-02  -0.2312328875E-01   0.2259174632E-02   0.1953260536E-03   0.0000000000E+00   0.0000000000E+00   0.1911063786E-01  -0.5297530103E-01   0.0000000000E+00  -0.2942551752E-01
   0.1009576714E-01  -0.2614522520E-01   0.2305658933E-02   0.2038573980E-03   0.0000000000E+00   0.0000000000E+00   0.1686166981E-01  -0.5540612452E-01   0.0000000000E+00  -0.2142159439E-01
   0.2483450747E-02  -0.4021534601E-01   0.2483450747E-02   0.1234421920E-03   0.0000000000E+00   0.0000000000E+00  -0.3828816305E-03  -0.2330536162E+00   0.0000000000E+00   0.3560186653E-02
   0.2431895207E-02  -0.3598705737E-01   0.2431895207E-02   0.1139113311E-03   0.0000000000E+00   0.0000000000E+00  -0.8190870887E-03  -0.2570079807E+00   0.0000000000E+00   0.3957064394E-02
   0.5805461213E-02  -0.3785737907E-01   0.2458404763E-02   0.1593649299E-03   0.0000000000E+00   0.0000000000E+00   0.4537808142E-03  -0.1822919388E+00   0.0000000000E+00   0.1060290821E-01
   0.2465504776E-01  -0.2552501402E-01   0.2306416563E-02   0.3976457814E-03   0.0000000000E+00   0.0000000000E+00   0.2103615686E+00   0.2041267594E+00   0.0000000000E+00  -0.2117585628E+00
   0.1823349504E-01  -0.2527089437E-01   0.2296641639E-02   0.3183687252E-03   0.0000000000E+00   0.0000000000E+00   0.1013182232E+00   0.1435008596E+00   0.0000000000E+00  -0.1307373157E+00
   0.2144370067E-01  -0.2539658082E-01   0.2300957466E-02   0.3593796754E-03   0.0000000000E+00   0.0000000000E+00   0.1613767520E+00   0.1774521368E+00   0.0000000000E+00  -0.1745385656E+00
   0.1974763812E-01  -0.2842397482E-01   0.2343230817E-02   0.3348825822E-03   0.0000000000E+00   0.0000000000E+00   0.8707083147E-01   0.1199101719E+00   0.0000000000E+00  -0.1033025018E+00
   0.2295748107E-01  -0.2855126134E-01   0.2347185869E-02   0.3742953600E-03   0.0000000000E+00   0.0000000000E+00   0.1424774705E+00   0.1580686312E+00   0.0000000000E+00  -0.1478487358E+00
  -0.8781611228E-02  -0.2965001313E-01   0.6433387718E-03   0.2288825664E-03   0.0000000000E+00   0.0000000000E+00   0.1734698029E-01  -0.5492721160E-01   0.0000000000E+00   0.1210671671E-01
  -0.7703780560E-02  -0.2626088849E-01   0.6922973404E-03   0.2127436082E-03   0.0000000000E+00   0.0000000000E+00   0.2099709485E-01  -0.3802543560E-01   0.0000000000E+00   0.2681991141E-01
  -0.1122605701E-01  -0.2757797780E-01   0.6714100897E-03   0.2624316002E-03   0.0000000000E+00   0.0000000000E+00   0.3123286118E-01   0.2790913459E-01   0.0000000000E+00   0.4372075337E-01
   0.6698793297E-03  -0.2834928482E-01   0.6698793297E-03   0.9463838267E-04   0.0000000000E+00   0.0000000000E+00  -0.1921254540E-02  -0.2984801800E+00   0.0000000000E+00  -0.4846552359E-02
   0.7475662456E-03  -0.4583003437E-03   0.1389114786E-02   0.6103836028E-04   0.0000000000E+00   0.0000000000E+00   0.3227664047E+01   0.3557013210E+01   0.0000000000E+00   0.2588181792E+01
   0.9273744217E-03  -0.3050212842E-03   0.1408036260E-02   0.5352673084E-04   0.0000000000E+00   0.0000000000E+00   0.3268842728E+01   0.3471125717E+01   0.0000000000E+00   0.3228190571E+01
   0.2398547909E-03   0.8303816416E-05   0.1408596871E-02   0.8656627202E-04   0.0000000000E+00   0.0000000000E+00   0.4721877606E+01   0.1365245125E+01   0.0000000000E+00   0.1975607677E+01
   0.3371183802E-03   0.2668791233E-03   0.1427702120E-02   0.8160971227E-04   0.0000000000E+00   0.0000000000E+00   0.5745186041E+01   0.1414443067E+01   0.0000000000E+00   0.1403777908E+01
   0.2404466843E-02  -0.7547185467E-03   0.1639430342E-02   0.6337301430E-04   0.0000000000E+00   0.0000000000E+00   0.1424850748E+01   0.2486406483E+01   0.0000000000E+00  -0.1939235584E+01
   0.2111163232E-02  -0.7365249292E-03   0.1636034585E-02   0.4419760484E-04   0.0000000000E+00   0.0000000000E+00   0.5361756139E-01   0.1971739980E+01   0.0000000000E+00  -0.1598486179E+01
   0.1804841208E-02  -0.5478596650E-03   0.1615951469E-02   0.2127400502E-04   0.0000000000E+00   0.0000000000E+00   0.3759387620E+00   0.2128925809E+01   0.0000000000E+00  -0.8382437417E-01
   0.1598404911E-02   0.1159750199E-02   0.1502678265E-02   0.5571478919E-04   0.0000000000E+00   0.0000000000E+00   0.5122420661E+01   0.4690063974E+01   0.0000000000E+00   0.2528495170E+00
  -0.1413105513E-02   0.1906432494E-02   0.1418005217E-02   0.1221437042E-03   0.0000000000E+00   0.0000000000E+00   0.3782453816E+01   0.9709213959E+00   0.0000000000E+00  -0.7676781686E-01
  -0.1555998725E-02   0.5895256361E-03   0.1375844785E-02   0.1336906751E-03   0.0000000000E+00   0.0000000000E+00   0.3357456899E+01   0.6639238635E+00   0.0000000000E+00   0.9084230308E+00
  -0.1482563676E-02   0.1247738171E-02   0.1398913444E-02   0.1276763206E-03   0.0000000000E+00   0.0000000000E+00   0.3579921879E+01   0.7659968387E+00   0.0000000000E+00   0.4356172090E+00
  -0.9828761382E-03   0.8583434125E-03   0.1402438412E-02   0.1179473205E-03   0.0000000000E+00   0.0000000000E+00   0.4016844720E+01   0.8906123934E+00   0.0000000000E+00   0.5573918564E+00
  -0.9105023082E-03   0.1516426439E-02   0.1424445852E-02   0.1118033989E-03   0.0000000000E+00   0.0000000000E+00   0.4200185135E+01   0.1051227735E+01   0.0000000000E+00   0.1785047490E-01
  -0.1900555392E-02  -0.6314487632E-03   0.1321838178E-02   0.1456978998E-03   0.0000000000E+00   0.0000000000E+00   0.2492937361E+01   0.8770805697E+00   0.0000000000E+00   0.1397692952E+01
  -0.7807251765E-03  -0.2748401514E-03   0.1362186364E-02   0.1182736106E-03   0.0000000000E+00   0.0000000000E+00   0.3185190403E+01   0.1095445304E+01   0.0000000000E+00   0.1648233355E+01
  -0.1727745344E-02  -0.2014995993E-04   0.1349373316E-02   0.1405058911E-03   0.0000000000E+00   0.0000000000E+00   0.2938539108E+01   0.7722399250E+00   0.0000000000E+00   0.1221605929E+01
  -0.1341755126E-02  -0.4524563848E-03   0.1340897434E-02   0.1326737982E-03   0.0000000000E+00   0.0000000000E+00   0.2752984614E+01   0.9235403424E+00   0.0000000000E+00   0.1498997839E+01
  -0.1166690751E-02   0.1581415826E-03   0.1370686889E-02   0.1267809829E-03   0.0000000000E+00   0.0000000000E+00   0.3359077566E+01   0.8889470515E+00   0.0000000000E+00   0.1224247437E+01
   0.1824618034E-02   0.1228863073E-02   0.1508865251E-02   0.5882354255E-04   0.0000000000E+00   0.0000000000E+00   0.5073873483E+01   0.4276008485E+01   0.0000000000E+00   0.5740279951E+00
   0.1981227537E-02   0.1045282303E-02   0.1514761471E-02   0.5788910395E-04   0.0000000000E+00   0.0000000000E+00   0.5693465954E+01   0.4378649785E+01   0.0000000000E+00   0.1008182266E+01
   0.2053415817E-02   0.1310090811E-02   0.1515197982E-02   0.6345419082E-04   0.0000000000E+00   0.0000000000E+00   0.5077953109E+01   0.3885793945E+01   0.0000000000E+00   0.8209454748E+00
   0.1444870580E-02   0.2704699554E-02   0.1498954130E-02   0.8135781420E-04   0.0000000000E+00   0.0000000000E+00   0.3315948464E+01   0.2924687864E+01   0.0000000000E+00  -0.3186753596E-01
   0.1439486475E-02   0.2283220527E-02   0.1498770811E-02   0.7547542684E-04   0.0000000000E+00   0.0000000000E+00   0.3615135972E+01   0.3163192289E+01   0.0000000000E+00  -0.4596039066E-01
   0.1781084071E-02   0.2401187370E-02   0.1505594371E-02   0.7769843022E-04   0.0000000000E+00   0.0000000000E+00   0.3596870909E+01   0.3116559096E+01   0.0000000000E+00   0.2106508368E+00
   0.3260056708E-02   0.7951413872E-03   0.1574120708E-02   0.9793951222E-04   0.0000000000E+00   0.0000000000E+00   0.4817347984E+01   0.1127950956E+01   0.0000000000E+00  -0.4533585961E+00
   0.2984153398E-02   0.8910876283E-03   0.1559617518E-02   0.8848570826E-04   0.0000000000E+00   0.0000000000E+00   0.5336522074E+01   0.1576825299E+01   0.0000000000E+00   0.1790881563E-01
   0.3264126351E-02   0.1084583043E-02   0.1564672661E-02   0.9623267715E-04   0.0000000000E+00   0.0000000000E+00   0.4843520402E+01   0.1388513032E+01   0.0000000000E+00  -0.9044289574E-02
   0.2237410305E-02   0.8833348408E-03   0.1526876082E-02   0.6275653176E-04   0.0000000000E+00   0.0000000000E+00   0.6452985074E+01   0.3431709138E+01   0.0000000000E+00   0.1086677838E+01
   0.7728728490E-02   0.2876929733E-02   0.1644634670E-02   0.1808766132E-03   0.0000000000E+00   0.0000000000E+00   0.2555317880E+01   0.4125358942E+00   0.0000000000E+00  -0.1969024159E+00
   0.7333397636E-02   0.9601080075E-03   0.1678562026E-02   0.1853147975E-03   0.0000000000E+00   0.0000000000E+00   0.2400646639E+01   0.3737874263E+00   0.0000000000E+00  -0.6733500176E+00
   0.1004974873E-01   0.2003285164E-02   0.1706893123E-02   0.2208956943E-03   0.0000000000E+00   0.0000000000E+00   0.2051505606E+01   0.2339760007E+00   0.0000000000E+00  -0.4536667235E+00
   0.7529502538E-02   0.1918556051E-02   0.1660037588E-02   0.1831328212E-03   0.0000000000E+00   0.0000000000E+00   0.2480228337E+01   0.4022462396E+00   0.0000000000E+00  -0.4286948229E+00
   0.8691743876E-02   0.1482618662E-02   0.1692898496E-02   0.2040273221E-03   0.0000000000E+00   0.0000000000E+00   0.2221706569E+01   0.3016779705E+00   0.0000000000E+00  -0.5543006373E+00
   0.8890161849E-02   0.2440788177E-02   0.1676687129E-02   0.2015669366E-03   0.0000000000E+00   0.0000000000E+00   0.2279476723E+01   0.3067362119E+00   0.0000000000E+00  -0.3452030408E+00
   0.2678702152E-02   0.2856804850E-03   0.1571954492E-02   0.8204910298E-04   0.0000000000E+00   0.0000000000E+00   0.5756521799E+01   0.1399516610E+01   0.0000000000E+00  -0.1361503206E+01
   0.1336089762E-02  -0.1091761462E-02   0.1336089762E-02   0.3346998446E-05   0.0000000000E+00   0.0000000000E+00  -0.2014384099E+00  -0.7908337515E+00   0.0000000000E+00  -0.2371005639E+00
   0.3262098104E-02  -0.1691736296E-02   0.1708460434E-02   0.9011010382E-04   0.0000000000E+00   0.0000000000E+00   0.8136477130E+00   0.1478391944E+01   0.0000000000E+00  -0.1116637004E+01
   0.3432103476E-02  -0.2312013030E-02   0.1742705976E-02   0.8982900995E-04   0.0000000000E+00   0.0000000000E+00   0.4561869954E+00   0.1181176784E+01   0.0000000000E+00  -0.7973916735E+00
   0.3918616622E-02  -0.2005035226E-02   0.1728630682E-02   0.1117464341E-03   0.0000000000E+00   0.0000000000E+00   0.1044212142E+01   0.1358850870E+01   0.0000000000E+00  -0.1262948627E+01
   0.1465098936E-03  -0.1525578994E-02   0.1302997394E-02   0.7396752635E-04   0.0000000000E+00   0.0000000000E+00   0.6576155977E+00   0.1540228087E+01   0.0000000000E+00   0.1128447767E+01
   0.2111343684E-03  -0.2751915067E-03   0.1389560808E-02   0.8752557427E-04   0.0000000000E+00   0.0000000000E+00   0.3856687031E+01   0.1870102053E+01   0.0000000000E+00   0.2342201195E+01
   0.7807225643E-02  -0.6259633155E-02   0.1901934573E-02   0.1877821755E-03   0.0000000000E+00   0.0000000000E+00   0.4611611002E+00   0.6513271896E+00   0.0000000000E+00  -0.6274361791E+00
   0.6630107064E-02  -0.6086201546E-02   0.1894396964E-02   0.1613421845E-03   0.0000000000E+00   0.0000000000E+00   0.3404740824E+00   0.6006740731E+00   0.0000000000E+00  -0.5144315091E+00
   0.7111496598E-02  -0.7224014602E-02   0.1929159578E-02   0.1676691577E-03   0.0000000000E+00   0.0000000000E+00   0.2723476701E+00   0.5142590462E+00   0.0000000000E+00  -0.4411480391E+00
  -0.3407531076E-03  -0.1169188170E-02   0.1321956292E-02   0.1000114799E-03   0.0000000000E+00   0.0000000000E+00   0.1729704416E+01   0.1900956870E+01   0.0000000000E+00   0.1831707520E+01
  -0.1943084711E-02  -0.2592135024E-02   0.1238058019E-02   0.1386147556E-03   0.0000000000E+00   0.0000000000E+00   0.1047340381E+01   0.1168479925E+01   0.0000000000E+00   0.1159640853E+01
   0.6032432451E-02  -0.3631673923E-02   0.1809033591E-02   0.1604597274E-03   0.0000000000E+00   0.0000000000E+00   0.8035109842E+00   0.9026170016E+00   0.0000000000E+00  -0.9393398891E+00
   0.5098498771E-02  -0.3493993061E-02   0.1800073191E-02   0.1362296893E-03   0.0000000000E+00   0.0000000000E+00   0.6248786460E+00   0.9640262463E+00   0.0000000000E+00  -0.8450545548E+00
  -0.1403663398E-01  -0.1954015269E-01   0.7955693248E-03   0.3096580051E-03   0.0000000000E+00   0.0000000000E+00   0.1759277703E+00   0.2338038012E+00   0.0000000000E+00   0.2321421994E+00
  -0.1549594007E-01  -0.2249434908E-01   0.7458842295E-03   0.3252333212E-03   0.0000000000E+00   0.0000000000E+00   0.1422723327E+00   0.1890171706E+00   0.0000000000E+00   0.1845049164E+00
  -0.1727360299E-01  -0.1959003012E-01   0.7904992071E-03   0.3525906798E-03   0.0000000000E+00   0.0000000000E+00   0.2689586417E+00   0.2553628001E+00   0.0000000000E+00   0.2861938511E+00
  -0.2260854194E-02  -0.4849107797E-02   0.1148515656E-02   0.1318111535E-03   0.0000000000E+00   0.0000000000E+00   0.2584339217E+00   0.6602635777E+00   0.0000000000E+00   0.4985925100E+00
   0.7175852580E-02  -0.5312875781E-02   0.1871017310E-02   0.1782985085E-03   0.0000000000E+00   0.0000000000E+00   0.5336410431E+00   0.7098838175E+00   0.0000000000E+00  -0.7031111102E+00
  -0.3270505526E-02  -0.4911306213E-02   0.1144627044E-02   0.1587193573E-03   0.0000000000E+00   0.0000000000E+00   0.5047588908E+00   0.7634871789E+00   0.0000000000E+00   0.6923964593E+00
  -0.3229622878E-02  -0.6850904494E-02   0.1082610192E-02   0.1478551957E-03   0.0000000000E+00   0.0000000000E+00   0.1642359777E+00   0.4575380346E+00   0.0000000000E+00   0.3503550010E+00
  -0.5253839784E-02  -0.5863981976E-02   0.1108549056E-02   0.1990322935E-03   0.0000000000E+00   0.0000000000E+00   0.5949535811E+00   0.6836384120E+00   0.0000000000E+00   0.7202030596E+00
  -0.4508870299E-02  -0.6912044444E-02   0.1079391581E-02   0.1781823062E-03   0.0000000000E+00   0.0000000000E+00   0.3580129390E+00   0.5746246695E+00   0.0000000000E+00   0.5219579159E+00
  -0.3972386933E-02  -0.5800502447E-02   0.1113972637E-02   0.1710447731E-03   0.0000000000E+00   0.0000000000E+00   0.4366156009E+00   0.6580082089E+00   0.0000000000E+00   0.6001542315E+00
  -0.4416605852E-02  -0.9342434027E-02   0.1013018258E-02   0.1670940326E-03   0.0000000000E+00   0.0000000000E+00   0.1147434056E+00   0.3166686334E+00   0.0000000000E+00   0.2566699000E+00
   0.7088692235E-02  -0.1385029506E-01   0.2090675135E-02   0.1526949423E-03   0.0000000000E+00   0.0000000000E+00   0.3479811252E-01   0.2360188091E-01   0.0000000000E+00  -0.8240662073E-01
   0.4108906131E-01  -0.2954529354E-02   0.2101260808E-02   0.5169478357E-03   0.0000000000E+00   0.0000000000E+00   0.8329978332E+00  -0.1923320751E-01   0.0000000000E+00  -0.2414575577E+00
   0.3643056184E-01   0.6880178894E-03   0.2026611836E-02   0.4713446154E-03   0.0000000000E+00   0.0000000000E+00   0.9392171893E+00  -0.3128172327E-01   0.0000000000E+00  -0.2400551386E+00
   0.3600428236E-01  -0.5575609558E-02   0.2090412956E-02   0.4895565321E-03   0.0000000000E+00   0.0000000000E+00   0.8277195563E+00   0.2936796569E-01   0.0000000000E+00  -0.3077014775E+00
   0.3876055779E-01  -0.1132797494E-02   0.2064682593E-02   0.4946044158E-03   0.0000000000E+00   0.0000000000E+00   0.8846323348E+00  -0.2498879895E-01   0.0000000000E+00  -0.2396841638E+00
   0.3621658830E-01  -0.2443011943E-02   0.2057680497E-02   0.4812345373E-03   0.0000000000E+00   0.0000000000E+00   0.8828033484E+00  -0.2360101046E-02   0.0000000000E+00  -0.2758546013E+00
   0.3854610161E-01  -0.4264634468E-02   0.2095268505E-02   0.5036872923E-03   0.0000000000E+00   0.0000000000E+00   0.8334569774E+00   0.6509805272E-02   0.0000000000E+00  -0.2739158324E+00
  -0.6982973991E-02  -0.8100169691E-02   0.1041742759E-02   0.2240669187E-03   0.0000000000E+00   0.0000000000E+00   0.4445777666E+00   0.5411300578E+00   0.0000000000E+00   0.5664378145E+00
  -0.6024989095E-02  -0.9412069528E-02   0.1009925935E-02   0.2008576825E-03   0.0000000000E+00   0.0000000000E+00   0.2651645757E+00   0.4298211431E+00   0.0000000000E+00   0.3994417468E+00
  -0.5372665726E-02  -0.8028456192E-02   0.1046760104E-02   0.1923821880E-03   0.0000000000E+00   0.0000000000E+00   0.3138466743E+00   0.4888266082E+00   0.0000000000E+00   0.4532669753E+00
  -0.4526179615E-02  -0.1363636177E-01   0.9135777549E-03   0.1615062253E-03   0.0000000000E+00   0.0000000000E+00   0.4593417528E-01   0.6136108163E-01   0.0000000000E+00   0.1026718744E+00
   0.8279135923E-02  -0.1277250792E-01   0.2068282573E-02   0.1774635775E-03   0.0000000000E+00   0.0000000000E+00   0.6209022296E-01   0.1629510945E+00   0.0000000000E+00  -0.1515133144E+00
   0.3520647937E-01  -0.1192582374E-01   0.2159190667E-02   0.4980957642E-03   0.0000000000E+00   0.0000000000E+00   0.6906575542E+00   0.1030920990E+00   0.0000000000E+00  -0.3441479036E+00
   0.2903304833E-01  -0.1387620155E-01   0.2150571228E-02   0.4494572548E-03   0.0000000000E+00   0.0000000000E+00   0.6213616664E+00   0.1904004888E+00   0.0000000000E+00  -0.4012460596E+00
   0.3365415629E-01  -0.1844948660E-01   0.2233131891E-02   0.4919754024E-03   0.0000000000E+00   0.0000000000E+00   0.5200874489E+00   0.1735291276E+00   0.0000000000E+00  -0.3345146051E+00
   0.3211856567E-01  -0.1289981914E-01   0.2153682766E-02   0.4749695589E-03   0.0000000000E+00   0.0000000000E+00   0.6644479059E+00   0.1483940959E+00   0.0000000000E+00  -0.3732479382E+00
   0.3134476602E-01  -0.1616252253E-01   0.2193015317E-02   0.4710383680E-03   0.0000000000E+00   0.0000000000E+00   0.5630155287E+00   0.1757137280E+00   0.0000000000E+00  -0.3623530466E+00
   0.3442931369E-01  -0.1518641960E-01   0.2195159092E-02   0.4962701989E-03   0.0000000000E+00   0.0000000000E+00   0.6059203632E+00   0.1407378733E+00   0.0000000000E+00  -0.3436950906E+00
  -0.1142100720E-01  -0.1474711184E-01   0.8856858027E-03   0.2803543613E-03   0.0000000000E+00   0.0000000000E+00   0.2447906936E+00   0.3189546400E+00   0.0000000000E+00   0.3280573907E+00
  -0.1252769770E-01  -0.1264756903E-01   0.9251032039E-03   0.3012019655E-03   0.0000000000E+00   0.0000000000E+00   0.4128844357E+00   0.3696629655E+00   0.0000000000E+00   0.4475157850E+00
  -0.1023832633E-01  -0.1286675088E-01   0.9253330668E-03   0.2661584171E-03   0.0000000000E+00   0.0000000000E+00   0.2712029477E+00   0.3500847408E+00   0.0000000000E+00   0.3685750702E+00
  -0.1134265548E-01  -0.1076615160E-01   0.9671118187E-03   0.2880625030E-03   0.0000000000E+00   0.0000000000E+00   0.4855717385E+00   0.4145554416E+00   0.0000000000E+00   0.5073850763E+00
   0.8719875472E-02  -0.2049296425E-01   0.2215682992E-02   0.1809142505E-03   0.0000000000E+00   0.0000000000E+00   0.2251086918E-01  -0.3143053465E-01   0.0000000000E+00  -0.4381699840E-01
   0.2718357203E-01  -0.1966000926E-01   0.2226522432E-02   0.4311630424E-03   0.0000000000E+00   0.0000000000E+00   0.4081220152E+00   0.2368739087E+00   0.0000000000E+00  -0.3377679184E+00
   0.3148048877E-01  -0.2499519229E-01   0.2311821472E-02   0.4707394129E-03   0.0000000000E+00   0.0000000000E+00   0.3327801980E+00   0.2014183073E+00   0.0000000000E+00  -0.2631778766E+00
   0.3041762299E-01  -0.1905326935E-01   0.2228585991E-02   0.4630478520E-03   0.0000000000E+00   0.0000000000E+00   0.4740326881E+00   0.2080140466E+00   0.0000000000E+00  -0.3393908059E+00
   0.2933327166E-01  -0.2232736780E-01   0.2270412263E-02   0.4511842007E-03   0.0000000000E+00   0.0000000000E+00   0.3623596141E+00   0.2116679844E+00   0.0000000000E+00  -0.2941927391E+00
   0.3256659454E-01  -0.2172121618E-01   0.2271747836E-02   0.4824807239E-03   0.0000000000E+00   0.0000000000E+00   0.4261632095E+00   0.1923457043E+00   0.0000000000E+00  -0.3036106071E+00
  -0.1116422041E-01  -0.1909241499E-01   0.8056103935E-03   0.2685185138E-03   0.0000000000E+00   0.0000000000E+00   0.1232297652E+00   0.1758018115E+00   0.0000000000E+00   0.1768003043E+00
  -0.9857234465E-02  -0.1669783368E-01   0.8498412348E-03   0.2519280170E-03   0.0000000000E+00   0.0000000000E+00   0.1439780074E+00   0.2212285919E+00   0.0000000000E+00   0.2173887098E+00
  -0.1273043423E-01  -0.1714349564E-01   0.8390138748E-03   0.2951433570E-03   0.0000000000E+00   0.0000000000E+00   0.1970891673E+00   0.2607280158E+00   0.0000000000E+00   0.2683975953E+00
   0.1221590764E-01  -0.1348392037E-01   0.2086195139E-02   0.2478880337E-03   0.0000000000E+00   0.0000000000E+00   0.1972646448E+00   0.3087517241E+00   0.0000000000E+00  -0.3015988759E+00
   0.1006925031E-01  -0.1307835490E-01   0.2075851142E-02   0.2110295996E-03   0.0000000000E+00   0.0000000000E+00   0.1432500557E+00   0.2594348088E+00   0.0000000000E+00  -0.2430713357E+00
   0.1111432410E-01  -0.1493308069E-01   0.2114885140E-02   0.2259861140E-03   0.0000000000E+00   0.0000000000E+00   0.1249239599E+00   0.2080707127E+00   0.0000000000E+00  -0.2036244506E+00
  -0.1354884745E-01  -0.2481612201E-01   0.7111726453E-03   0.2961269895E-03   0.0000000000E+00   0.0000000000E+00   0.8839862783E-01   0.1127753865E+00   0.0000000000E+00   0.1129622917E+00
  -0.1209203043E-01  -0.2186377003E-01   0.7583686741E-03   0.2787072680E-03   0.0000000000E+00   0.0000000000E+00   0.1033232143E+00   0.1473543841E+00   0.0000000000E+00   0.1463994332E+00
   0.1110176296E-01  -0.2929250493E-01   0.2351348484E-02   0.2194124689E-03   0.0000000000E+00   0.0000000000E+00   0.1437700851E-01  -0.6807597759E-01   0.0000000000E+00  -0.8706644817E-02
   0.1171083973E-01  -0.3296260763E-01   0.2401072921E-02   0.2293079670E-03   0.0000000000E+00   0.0000000000E+00   0.1288588373E-01  -0.6389239337E-01   0.0000000000E+00  -0.2468822682E-02
   0.2806676746E-01  -0.2525859737E-01   0.2308117260E-02   0.4356984252E-03   0.0000000000E+00   0.0000000000E+00   0.2792116202E+00   0.2064490410E+00   0.0000000000E+00  -0.2414027898E+00
   0.2663866718E-01  -0.2860604773E-01   0.2351592377E-02   0.4167762707E-03   0.0000000000E+00   0.0000000000E+00   0.1848657290E+00   0.1783590057E+00   0.0000000000E+00  -0.1766399777E+00
   0.3004999834E-01  -0.2834073300E-01   0.2352904537E-02   0.4537269988E-03   0.0000000000E+00   0.0000000000E+00   0.2497410655E+00   0.1874763555E+00   0.0000000000E+00  -0.2097507963E+00
   0.1085133953E-01  -0.4446506624E-01   0.2538819891E-02   0.2270142564E-03   0.0000000000E+00   0.0000000000E+00   0.8228939190E-03  -0.1033901284E+00   0.0000000000E+00   0.2826950275E-01
   0.6668258830E-02  -0.4233922499E-01   0.2511999010E-02   0.1762093144E-03   0.0000000000E+00   0.0000000000E+00   0.1092413159E-02  -0.1671815060E+00   0.0000000000E+00   0.1569791623E-01
   0.2543798187E-02  -0.4545733273E-01   0.2543798187E-02   0.1338428686E-03   0.0000000000E+00   0.0000000000E+00  -0.2643281605E-03  -0.2053600477E+00   0.0000000000E+00   0.3762876317E-02
   0.6726868695E-02  -0.4758419809E-01   0.2570608875E-02   0.1836236136E-03   0.0000000000E+00   0.0000000000E+00   0.1036305317E-03  -0.1422463742E+00   0.0000000000E+00   0.1559706862E-01
   0.1295701836E-01  -0.3670209907E-01   0.2449083656E-02   0.2469729305E-03   0.0000000000E+00   0.0000000000E+00   0.1116638808E-01  -0.6843669962E-01   0.0000000000E+00   0.9224412372E-02
   0.5378998944E-03   0.1255611778E-02   0.1470606065E-02   0.7185538840E-04   0.0000000000E+00   0.0000000000E+00   0.5347600998E+01   0.2944124146E+01   0.0000000000E+00  -0.9317215115E+00
   0.8461130006E-03   0.1266941514E-02   0.1481292459E-02   0.6470628425E-04   0.0000000000E+00   0.0000000000E+00   0.5252107564E+01   0.3725656640E+01   0.0000000000E+00  -0.9245921568E+00
   0.6795216985E-03   0.1447610354E-02   0.1477619277E-02   0.7030207395E-04   0.0000000000E+00   0.0000000000E+00   0.4965969340E+01   0.3351490073E+01   0.0000000000E+00  -0.9139170965E+00
  -0.1136918484E-01  -0.2567113926E-03   0.1185527759E-02   0.2845793994E-03   0.0000000000E+00   0.0000000000E+00   0.1466553894E+01   0.1812959565E+00   0.0000000000E+00   0.5676787436E+00
  -0.8599532608E-02  -0.2462627107E-02   0.1173598852E-02   0.2578194532E-03   0.0000000000E+00   0.0000000000E+00   0.1376427088E+01   0.3731186977E+00   0.0000000000E+00   0.7892104644E+00
  -0.7774300083E-02   0.4417452130E-03   0.1249179107E-02   0.2383359230E-03   0.0000000000E+00   0.0000000000E+00   0.1793050259E+01   0.2466747683E+00   0.0000000000E+00   0.6315318657E+00
  -0.9982575976E-02  -0.1358518737E-02   0.1181346024E-02   0.2723499130E-03   0.0000000000E+00   0.0000000000E+00   0.1443520483E+01   0.2792164240E+00   0.0000000000E+00   0.6702276579E+00
  -0.8186645048E-02  -0.1009477327E-02   0.1211660742E-02   0.2490413329E-03   0.0000000000E+00   0.0000000000E+00   0.1596696550E+01   0.3206954646E+00   0.0000000000E+00   0.7327270650E+00
  -0.9573174899E-02   0.9343622470E-04   0.1215921501E-02   0.2623769757E-03   0.0000000000E+00   0.0000000000E+00   0.1597464566E+01   0.2044172521E+00   0.0000000000E+00   0.5908054148E+00
  -0.1925153876E-03  -0.6397547386E-03   0.1356340872E-02   0.9983069544E-04   0.0000000000E+00   0.0000000000E+00   0.2794172560E+01   0.1743288078E+01   0.0000000000E+00   0.2147908215E+01
   0.1266203949E-03  -0.5563206603E-03   0.1368402375E-02   0.8877319266E-04   0.0000000000E+00   0.0000000000E+00   0.2949666340E+01   0.2040795895E+01   0.0000000000E+00   0.2393685590E+01
  -0.1102606658E-03  -0.3588366390E-03   0.1375240054E-02   0.9837199399E-04   0.0000000000E+00   0.0000000000E+00   0.3507449672E+01   0.1549157621E+01   0.0000000000E+00   0.2111014078E+01
  -0.8294961496E-04   0.7143310174E-03   0.1429841535E-02   0.9292488840E-04   0.0000000000E+00   0.0000000000E+00   0.5117806842E+01   0.1195248118E+01   0.0000000000E+00   0.4647052457E+00
   0.4013613110E-04   0.5766746297E-03   0.1429445891E-02   0.8985561472E-04   0.0000000000E+00   0.0000000000E+00   0.5301743241E+01   0.1260808097E+01   0.0000000000E+00   0.6500584917E+00
  -0.2608693222E-03   0.5655684914E-03   0.1416821218E-02   0.9967780743E-04   0.0000000000E+00   0.0000000000E+00   0.4712994749E+01   0.1097243927E+01   0.0000000000E+00   0.8222841601E+00
   0.9008836741E-02  -0.1891521263E-03   0.1737443541E-02   0.2165243617E-03   0.0000000000E+00   0.0000000000E+00   0.1899012726E+01   0.3598131717E+00   0.0000000000E+00  -0.7839075190E+00
   0.9111070829E-02  -0.2092711878E-02   0.1788209479E-02   0.2225076122E-03   0.0000000000E+00   0.0000000000E+00   0.1526782121E+01   0.5085887454E+00   0.0000000000E+00  -0.9367752154E+00
   0.1116271773E-01  -0.7746230467E-03   0.1782807423E-02   0.2480634333E-03   0.0000000000E+00   0.0000000000E+00   0.1617874690E+01   0.2960910448E+00   0.0000000000E+00  -0.7206170552E+00
   0.9059423151E-02  -0.1140286569E-02   0.1762295641E-02   0.2201613915E-03   0.0000000000E+00   0.0000000000E+00   0.1718767608E+01   0.4378144083E+00   0.0000000000E+00  -0.8774906026E+00
   0.1013568940E-01  -0.1432764898E-02   0.1784303806E-02   0.2361880923E-03   0.0000000000E+00   0.0000000000E+00   0.1599633727E+01   0.4098078164E+00   0.0000000000E+00  -0.8198711669E+00
   0.1008657992E-01  -0.4814167458E-03   0.1760928634E-02   0.2327647112E-03   0.0000000000E+00   0.0000000000E+00   0.1736642326E+01   0.3125213243E+00   0.0000000000E+00  -0.7478819496E+00
  -0.4739544954E-04  -0.8587703852E-03   0.1345013060E-02   0.9232428383E-04   0.0000000000E+00   0.0000000000E+00   0.2063287553E+01   0.1930055929E+01   0.0000000000E+00   0.1957408563E+01
  -0.4862534537E-03  -0.9503289162E-03   0.1332903706E-02   0.1073614438E-03   0.0000000000E+00   0.0000000000E+00   0.2219173289E+01   0.1534509319E+01   0.0000000000E+00   0.1853063641E+01
   0.3322220813E-02  -0.1248558056E-02   0.1682583183E-02   0.9837606388E-04   0.0000000000E+00   0.0000000000E+00   0.1554118907E+01   0.1890322783E+01   0.0000000000E+00  -0.1747370373E+01
  -0.1285155171E-01   0.6831379832E-02   0.1272758893E-02   0.2660870019E-03   0.0000000000E+00   0.0000000000E+00   0.1699450435E+01   0.1336236431E+00   0.0000000000E+00   0.8586706956E-01
  -0.1458242973E-01   0.2769345164E-02   0.1193645675E-02   0.3053701744E-03   0.0000000000E+00   0.0000000000E+00   0.1466051330E+01   0.7413993369E-01   0.0000000000E+00   0.3485824307E+00
  -0.1044314570E-01   0.3221397712E-02   0.1258937395E-02   0.2577392920E-03   0.0000000000E+00   0.0000000000E+00   0.1762963131E+01   0.1416370787E+00   0.0000000000E+00   0.3273943616E+00
  -0.1371605831E-01   0.4800687229E-02   0.1234135193E-02   0.2860535489E-03   0.0000000000E+00   0.0000000000E+00   0.1587833002E+01   0.9743152884E-01   0.0000000000E+00   0.2321152797E+00
  -0.1251407740E-01   0.2996243351E-02   0.1225001795E-02   0.2824266410E-03   0.0000000000E+00   0.0000000000E+00   0.1586980849E+01   0.9733989201E-01   0.0000000000E+00   0.3397690441E+00
  -0.1164574115E-01   0.5026561073E-02   0.1267456155E-02   0.2620852134E-03   0.0000000000E+00   0.0000000000E+00   0.1749925434E+01   0.1531663752E+00   0.0000000000E+00   0.1904032767E+00
   0.1005173821E-02   0.3503592585E-02   0.1491597548E-02   0.9191701544E-04   0.0000000000E+00   0.0000000000E+00   0.2955720309E+01   0.2477281732E+01   0.0000000000E+00  -0.2072570080E+00
   0.3856794332E-03   0.2855619810E-02   0.1478528033E-02   0.8943436998E-04   0.0000000000E+00   0.0000000000E+00   0.3415788010E+01   0.2547955828E+01   0.0000000000E+00  -0.5683051726E+00
   0.6959901706E-03   0.3178933047E-02   0.1485626335E-02   0.9000242674E-04   0.0000000000E+00   0.0000000000E+00   0.3169241376E+01   0.2536615149E+01   0.0000000000E+00  -0.3688512904E+00
   0.9155174844E-03   0.2778844954E-02   0.1488983550E-02   0.8408124403E-04   0.0000000000E+00   0.0000000000E+00   0.3381444180E+01   0.2767981734E+01   0.0000000000E+00  -0.3356459853E+00
   0.1224864283E-02   0.3104247373E-02   0.1495117912E-02   0.8673871329E-04   0.0000000000E+00   0.0000000000E+00   0.3127831466E+01   0.2681354814E+01   0.0000000000E+00  -0.1192770073E+00
   0.8717016059E-02  -0.4201912584E-02   0.1844400749E-02   0.2140125464E-03   0.0000000000E+00   0.0000000000E+00   0.1021711908E+01   0.6835678353E+00   0.0000000000E+00  -0.9199123167E+00
   0.7628383819E-02  -0.4282468101E-02   0.1839886189E-02   0.1929610892E-03   0.0000000000E+00   0.0000000000E+00   0.8956288794E+00   0.7810271126E+00   0.0000000000E+00  -0.9007935098E+00
   0.8261482350E-02  -0.5229844231E-02   0.1872529390E-02   0.2018259995E-03   0.0000000000E+00   0.0000000000E+00   0.7354512635E+00   0.6989620186E+00   0.0000000000E+00  -0.7954071465E+00
   0.3689845319E-02  -0.9733881409E-04   0.1627022399E-02   0.1154238069E-03   0.0000000000E+00   0.0000000000E+00   0.3469816835E+01   0.1058289840E+01   0.0000000000E+00  -0.1567336841E+01
   0.8602090126E-04   0.8063788085E-03   0.1440395941E-02   0.8664870653E-04   0.0000000000E+00   0.0000000000E+00   0.5440386125E+01   0.1525985644E+01   0.0000000000E+00   0.1383412152E+00
  -0.4856405253E-03  -0.4565042342E-03   0.1360243375E-02   0.1098453638E-03   0.0000000000E+00   0.0000000000E+00   0.3099036398E+01   0.1445624500E+01   0.0000000000E+00   0.1905943573E+01
  -0.4054074212E-03  -0.1763732187E-03   0.1377120939E-02   0.1075995783E-03   0.0000000000E+00   0.0000000000E+00   0.3527931101E+01   0.1159703328E+01   0.0000000000E+00   0.1746867637E+01
   0.7191571640E-02  -0.2722142878E-02   0.1785563070E-02   0.1897084018E-03   0.0000000000E+00   0.0000000000E+00   0.1352362262E+01   0.7842197624E+00   0.0000000000E+00  -0.1098778341E+01
   0.7955458125E-02  -0.3461709830E-02   0.1816146185E-02   0.2021783695E-03   0.0000000000E+00   0.0000000000E+00   0.1152449009E+01   0.7038887332E+00   0.0000000000E+00  -0.9838399966E+00
   0.6865879237E-02  -0.3543230890E-02   0.1810685447E-02   0.1801613699E-03   0.0000000000E+00   0.0000000000E+00   0.1009918110E+01   0.8453486182E+00   0.0000000000E+00  -0.9972270009E+00
  -0.1929632065E-02  -0.1682964830E-02   0.1277511095E-02   0.1441507095E-03   0.0000000000E+00   0.0000000000E+00   0.1678463443E+01   0.1144111758E+01   0.0000000000E+00   0.1426205067E+01
  -0.1545926112E-02  -0.2098249584E-02   0.1262685958E-02   0.1309424764E-03   0.0000000000E+00   0.0000000000E+00   0.1196246033E+01   0.1228826205E+01   0.0000000000E+00   0.1249682879E+01
  -0.1354299940E-02  -0.1471449844E-02   0.1294000550E-02   0.1300056564E-03   0.0000000000E+00   0.0000000000E+00   0.1745476182E+01   0.1331886199E+01   0.0000000000E+00   0.1566687881E+01
  -0.4214531819E-02  -0.3233565049E-02   0.1197211831E-02   0.1886181706E-03   0.0000000000E+00   0.0000000000E+00   0.1162620348E+01   0.8020587754E+00   0.0000000000E+00   0.1033396272E+01
  -0.3651547938E-02  -0.2527746028E-02   0.1226330882E-02   0.1795672517E-03   0.0000000000E+00   0.0000000000E+00   0.1399505013E+01   0.8724060285E+00   0.0000000000E+00   0.1148076442E+01
   0.7879833482E-02  -0.8414313644E-02   0.1963038722E-02   0.1803287455E-03   0.0000000000E+00   0.0000000000E+00   0.2348412035E+00   0.4278053391E+00   0.0000000000E+00  -0.3759840306E+00
   0.1273454427E-01  -0.8561238385E-02   0.1978480067E-02   0.2690099950E-03   0.0000000000E+00   0.0000000000E+00   0.5943459240E+00   0.4829417136E+00   0.0000000000E+00  -0.6131438294E+00
   0.1103884254E-01  -0.8600493685E-02   0.1973707155E-02   0.2412965751E-03   0.0000000000E+00   0.0000000000E+00   0.4847513299E+00   0.5023504933E+00   0.0000000000E+00  -0.5579197209E+00
   0.1195139226E-01  -0.1009380045E-01   0.2011524257E-02   0.2523868513E-03   0.0000000000E+00   0.0000000000E+00   0.4104172056E+00   0.4460650300E+00   0.0000000000E+00  -0.4942205110E+00
  -0.5007881350E-02  -0.3891225020E-02   0.1170029250E-02   0.2018771602E-03   0.0000000000E+00   0.0000000000E+00   0.1047933215E+01   0.7503833688E+00   0.0000000000E+00   0.9498096843E+00
  -0.4552680308E-02  -0.4973155631E-02   0.1138481072E-02   0.1883369891E-03   0.0000000000E+00   0.0000000000E+00   0.6708855135E+00   0.7255996864E+00   0.0000000000E+00   0.7884400656E+00
   0.8577530877E-02  -0.7451389212E-02   0.1937782067E-02   0.1989852183E-03   0.0000000000E+00   0.0000000000E+00   0.3705227044E+00   0.5458767418E+00   0.0000000000E+00  -0.5299430376E+00
   0.1055617490E-01  -0.6112452337E-02   0.1908559808E-02   0.2404598329E-03   0.0000000000E+00   0.0000000000E+00   0.7776986441E+00   0.5804927288E+00   0.0000000000E+00  -0.7568992432E+00
   0.9637816629E-02  -0.5156886820E-02   0.1877701659E-02   0.2275318296E-03   0.0000000000E+00   0.0000000000E+00   0.8699672926E+00   0.6054430217E+00   0.0000000000E+00  -0.8162821260E+00
   0.9180624273E-02  -0.6184225508E-02   0.1904171193E-02   0.2159382419E-03   0.0000000000E+00   0.0000000000E+00   0.6529638316E+00   0.6321958231E+00   0.0000000000E+00  -0.7106881174E+00
  -0.5710661215E-02  -0.4782508087E-02   0.1138476855E-02   0.2121162031E-03   0.0000000000E+00   0.0000000000E+00   0.8872579940E+00   0.6854698534E+00   0.0000000000E+00   0.8565943277E+00
  -0.6119678825E-02  -0.6981853168E-02   0.1073873975E-02   0.2117722717E-03   0.0000000000E+00   0.0000000000E+00   0.4890625858E+00   0.5799445960E+00   0.0000000000E+00   0.6188523530E+00
   0.1164663913E-01  -0.7336569646E-02   0.1944799484E-02   0.2550103936E-03   0.0000000000E+00   0.0000000000E+00   0.6618154222E+00   0.5091054840E+00   0.0000000000E+00  -0.6663195940E+00
   0.9950237947E-02  -0.7377162090E-02   0.1939327127E-02   0.2259607605E-03   0.0000000000E+00   0.0000000000E+00   0.5460107301E+00   0.5633489646E+00   0.0000000000E+00  -0.6298142512E+00
  -0.8199033901E-02  -0.5307428545E-02   0.1108227659E-02   0.2522729248E-03   0.0000000000E+00   0.0000000000E+00   0.9467143142E+00   0.5341033191E+00   0.0000000000E+00   0.7987216202E+00
  -0.7590110257E-02  -0.6702587877E-02   0.1075878893E-02   0.2393811627E-03   0.0000000000E+00   0.0000000000E+00   0.6971955288E+00   0.5678357528E+00   0.0000000000E+00   0.7057442070E+00
  -0.6724838912E-02  -0.5583553501E-02   0.1109986748E-02   0.2278043689E-03   0.0000000000E+00   0.0000000000E+00   0.8109252785E+00   0.6234927026E+00   0.0000000000E+00   0.7797046560E+00
  -0.8019171801E-02  -0.9543243246E-02   0.1003499929E-02   0.2380521836E-03   0.0000000000E+00   0.0000000000E+00   0.3655224438E+00   0.4560014165E+00   0.0000000000E+00   0.4838591720E+00
   0.1189733194E-01  -0.1710207989E-01   0.2157141362E-02   0.2356596057E-03   0.0000000000E+00   0.0000000000E+00   0.1063729109E+00   0.1765797140E+00   0.0000000000E+00  -0.1755291858E+00
   0.1657887464E-01  -0.7875166585E-02   0.1983349338E-02   0.3216101454E-03   0.0000000000E+00   0.0000000000E+00   0.7987598468E+00   0.3580276518E+00   0.0000000000E+00  -0.6180733024E+00
   0.1818448483E-01  -0.9481680610E-02   0.2023449130E-02   0.3397985999E-03   0.0000000000E+00   0.0000000000E+00   0.7024052862E+00   0.3238686895E+00   0.0000000000E+00  -0.5563149785E+00
   0.1590857423E-01  -0.9769117661E-02   0.2017960426E-02   0.3115383390E-03   0.0000000000E+00   0.0000000000E+00   0.6257410475E+00   0.3896399833E+00   0.0000000000E+00  -0.5649110770E+00
   0.1751249223E-01  -0.1137541781E-01   0.2056368025E-02   0.3299415864E-03   0.0000000000E+00   0.0000000000E+00   0.5643732687E+00   0.3619447044E+00   0.0000000000E+00  -0.5104013702E+00
  -0.1070532748E-01  -0.7517995176E-02   0.1040734525E-02   0.2851296639E-03   0.0000000000E+00   0.0000000000E+00   0.7566654073E+00   0.4536816872E+00   0.0000000000E+00   0.6693995576E+00
  -0.9878191284E-02  -0.9251191364E-02   0.1005153016E-02   0.2695479559E-03   0.0000000000E+00   0.0000000000E+00   0.5429188831E+00   0.4619966958E+00   0.0000000000E+00   0.5707768358E+00
  -0.8842512357E-02  -0.7806769616E-02   0.1042877003E-02   0.2569108740E-03   0.0000000000E+00   0.0000000000E+00   0.6315447159E+00   0.5114167821E+00   0.0000000000E+00   0.6357458914E+00
  -0.9008357084E-02  -0.1447763191E-01   0.8936321655E-03   0.2421672863E-03   0.0000000000E+00   0.0000000000E+00   0.1710899917E+00   0.2585498387E+00   0.0000000000E+00   0.2541420989E+00
   0.1443353605E-01  -0.1760577762E-01   0.2168107147E-02   0.2749806808E-03   0.0000000000E+00   0.0000000000E+00   0.1470694375E+00   0.2263161354E+00   0.0000000000E+00  -0.2208662290E+00
   0.3877821907E-01  -0.2372182754E-01   0.2317502772E-02   0.5367264603E-03   0.0000000000E+00   0.0000000000E+00   0.4380144142E+00   0.1547829876E+00   0.0000000000E+00  -0.2714856784E+00
   0.3512812796E-01  -0.2435702877E-01   0.2313435261E-02   0.5052141316E-03   0.0000000000E+00   0.0000000000E+00   0.3932573994E+00   0.1805627082E+00   0.0000000000E+00  -0.2701943130E+00
   0.3392062079E-01  -0.2805545503E-01   0.2356619788E-02   0.4924931715E-03   0.0000000000E+00   0.0000000000E+00   0.2976961847E+00   0.1793403291E+00   0.0000000000E+00  -0.2260991393E+00
   0.3756769632E-01  -0.2741798049E-01   0.2357668017E-02   0.5262788064E-03   0.0000000000E+00   0.0000000000E+00   0.3560488342E+00   0.1659005902E+00   0.0000000000E+00  -0.2387907082E+00
  -0.1691659605E-01  -0.1457085232E-01   0.8766681526E-03   0.3554443805E-03   0.0000000000E+00   0.0000000000E+00   0.4493708311E+00   0.3187408313E+00   0.0000000000E+00   0.4297134683E+00
  -0.2177617688E-01  -0.1664742820E-01   0.8264557246E-03   0.4081410005E-03   0.0000000000E+00   0.0000000000E+00   0.4700287978E+00   0.2542355962E+00   0.0000000000E+00   0.3856835424E+00
  -0.1871624234E-01  -0.1710716740E-01   0.8283888596E-03   0.3736959032E-03   0.0000000000E+00   0.0000000000E+00   0.3788711207E+00   0.2752791033E+00   0.0000000000E+00   0.3650905049E+00
  -0.1997774790E-01  -0.1411040056E-01   0.8735177038E-03   0.3906011386E-03   0.0000000000E+00   0.0000000000E+00   0.5454146955E+00   0.2799556371E+00   0.0000000000E+00   0.4372900001E+00
   0.1525722026E-01  -0.2469805117E-01   0.2286390864E-02   0.2783141259E-03   0.0000000000E+00   0.0000000000E+00   0.6998689559E-01   0.8692062739E-01   0.0000000000E+00  -0.9391036059E-01
   0.1328894933E-01  -0.2727678289E-01   0.2323836732E-02   0.2495175129E-03   0.0000000000E+00   0.0000000000E+00   0.2650791986E-01   0.1042114597E-01   0.0000000000E+00  -0.3657417479E-01
   0.1626450688E-01  -0.2784923953E-01   0.2333370283E-02   0.2899586729E-03   0.0000000000E+00   0.0000000000E+00   0.6121729197E-01   0.7339447642E-01   0.0000000000E+00  -0.7642020901E-01
   0.4649155805E-01  -0.2163371208E-01   0.2324914849E-02   0.5946909164E-03   0.0000000000E+00   0.0000000000E+00   0.5138537082E+00   0.9198677523E-01   0.0000000000E+00  -0.2467613051E+00
   0.4454417983E-01  -0.2979384471E-01   0.2404187729E-02   0.5848415896E-03   0.0000000000E+00   0.0000000000E+00   0.3700380461E+00   0.1341970593E+00   0.0000000000E+00  -0.2136401402E+00
   0.4263363518E-01  -0.2267646627E-01   0.2319955483E-02   0.5670131321E-03   0.0000000000E+00   0.0000000000E+00   0.4822047129E+00   0.1247191003E+00   0.0000000000E+00  -0.2603069425E+00
   0.4166237185E-01  -0.2675756315E-01   0.2362019551E-02   0.5610560514E-03   0.0000000000E+00   0.0000000000E+00   0.3984884823E+00   0.1397695954E+00   0.0000000000E+00  -0.2384754701E+00
   0.4551708253E-01  -0.2571261365E-01   0.2363766732E-02   0.5909309517E-03   0.0000000000E+00   0.0000000000E+00   0.4421595614E+00   0.1156004822E+00   0.0000000000E+00  -0.2332210856E+00
  -0.1462800523E-01  -0.2820973704E-01   0.6608878680E-03   0.3077774610E-03   0.0000000000E+00   0.0000000000E+00   0.7512990292E-01   0.9471997830E-01   0.0000000000E+00   0.8967310891E-01
   0.2498534008E-01  -0.3881004098E-01   0.2479458778E-02   0.3895720177E-03   0.0000000000E+00   0.0000000000E+00   0.6645451747E-01   0.8187784124E-01   0.0000000000E+00  -0.4573144823E-01
   0.2680307402E-01  -0.3524886392E-01   0.2437373217E-02   0.4124385763E-03   0.0000000000E+00   0.0000000000E+00   0.1164544076E+00   0.1243829907E+00   0.0000000000E+00  -0.9865206323E-01
   0.2493886627E-01  -0.3163122600E-01   0.2390125568E-02   0.3944948960E-03   0.0000000000E+00   0.0000000000E+00   0.1284936984E+00   0.1367816494E+00   0.0000000000E+00  -0.1184190390E+00
   0.2312348330E-01  -0.3519346482E-01   0.2434562103E-02   0.3705703795E-03   0.0000000000E+00   0.0000000000E+00   0.7146094663E-01   0.9183214064E-01   0.0000000000E+00  -0.6253280692E-01
  -0.4118669148E-01  -0.2375193614E-01   0.6622027175E-03   0.5796018601E-03   0.0000000000E+00   0.0000000000E+00   0.4699740894E+00   0.1177675926E+00   0.0000000000E+00   0.2509425128E+00
  -0.3691655958E-01  -0.2444460162E-01   0.6701219168E-03   0.5462959796E-03   0.0000000000E+00   0.0000000000E+00   0.4338391724E+00   0.1509229569E+00   0.0000000000E+00   0.2605127430E+00
  -0.3821403648E-01  -0.2057761681E-01   0.7093090220E-03   0.5545505854E-03   0.0000000000E+00   0.0000000000E+00   0.5136808572E+00   0.1170410590E+00   0.0000000000E+00   0.2766735221E+00
  -0.9980414879E-03   0.5038224125E-03   0.1389175292E-02   0.1207172835E-03   0.0000000000E+00   0.0000000000E+00   0.3733446445E+01   0.7720691378E+00   0.0000000000E+00   0.1008866447E+01
  -0.4219957538E-03   0.7707555547E-03   0.1418691836E-02   0.1030893537E-03   0.0000000000E+00   0.0000000000E+00   0.4466128235E+01   0.1054405457E+01   0.0000000000E+00   0.5928065449E+00
   0.4548164461E-02   0.7990302091E-04   0.1642390531E-02   0.1361208566E-03   0.0000000000E+00   0.0000000000E+00   0.3075191676E+01   0.7536017085E+00   0.0000000000E+00  -0.1212935611E+01
   0.4283063628E-02   0.4914920725E-03   0.1619794458E-02   0.1277942795E-03   0.0000000000E+00   0.0000000000E+00   0.3522757455E+01   0.7706707106E+00   0.0000000000E+00  -0.9646434126E+00
   0.3797964636E-02   0.5859458852E-03   0.1601326726E-02   0.1149049582E-03   0.0000000000E+00   0.0000000000E+00   0.4002713037E+01   0.9118293091E+00   0.0000000000E+00  -0.8859389078E+00
   0.4064844225E-02   0.1752699235E-03   0.1625701555E-02   0.1241446288E-03   0.0000000000E+00   0.0000000000E+00   0.3426984154E+01   0.8038245449E+00   0.0000000000E+00  -0.1236663815E+01
   0.3065158934E-02   0.6254240306E-03   0.1572879124E-02   0.9297317761E-04   0.0000000000E+00   0.0000000000E+00   0.5131497517E+01   0.1195492597E+01   0.0000000000E+00  -0.6603671951E+00
   0.7471635720E-03   0.2048514862E-02   0.1483300144E-02   0.7644885192E-04   0.0000000000E+00   0.0000000000E+00   0.3997079647E+01   0.3127908817E+01   0.0000000000E+00  -0.6372813796E+00
   0.5607306627E-03   0.1741155243E-02   0.1476611094E-02   0.7570740289E-04   0.0000000000E+00   0.0000000000E+00   0.4504669519E+01   0.3066341753E+01   0.0000000000E+00  -0.8115761856E+00
   0.8666010071E-03   0.1755037364E-02   0.1484954726E-02   0.7111092447E-04   0.0000000000E+00   0.0000000000E+00   0.4283632307E+01   0.3355870062E+01   0.0000000000E+00  -0.6279158313E+00
   0.2853579652E-03   0.2043427883E-02   0.1471462925E-02   0.8344788312E-04   0.0000000000E+00   0.0000000000E+00   0.4206664213E+01   0.2687743895E+01   0.0000000000E+00  -0.7832204181E+00
   0.4275416423E-02  -0.1638789122E-02   0.1713128693E-02   0.1265884682E-03   0.0000000000E+00   0.0000000000E+00   0.1541923625E+01   0.1381495981E+01   0.0000000000E+00  -0.1511251597E+01
   0.4769388180E-02  -0.9320334862E-03   0.1688013840E-02   0.1426049638E-03   0.0000000000E+00   0.0000000000E+00   0.2288172567E+01   0.1009188624E+01   0.0000000000E+00  -0.1488088629E+01
   0.4257478191E-02  -0.1156600529E-02   0.1689677961E-02   0.1291117010E-03   0.0000000000E+00   0.0000000000E+00   0.2064050117E+01   0.1278137322E+01   0.0000000000E+00  -0.1578821392E+01
   0.4784738990E-02  -0.1412624797E-02   0.1708877150E-02   0.1416791229E-03   0.0000000000E+00   0.0000000000E+00   0.1896316613E+01   0.1126675970E+01   0.0000000000E+00  -0.1478386986E+01
   0.2522969476E-02   0.2904914985E-02   0.1519370446E-02   0.8897619467E-04   0.0000000000E+00   0.0000000000E+00   0.3351151374E+01   0.2577828286E+01   0.0000000000E+00   0.5222973408E+00
   0.1983790676E-02   0.2803481787E-02   0.1509032928E-02   0.8384151672E-04   0.0000000000E+00   0.0000000000E+00   0.3342146463E+01   0.2772524419E+01   0.0000000000E+00   0.2773619960E+00
   0.2320837421E-02   0.2502429774E-02   0.1516506442E-02   0.8264231444E-04   0.0000000000E+00   0.0000000000E+00   0.3574286293E+01   0.2812400098E+01   0.0000000000E+00   0.5004683218E+00
   0.2204205990E-02   0.1510433205E-02   0.1518332840E-02   0.6885377525E-04   0.0000000000E+00   0.0000000000E+00   0.4780836826E+01   0.3503596331E+01   0.0000000000E+00   0.8305146615E+00
   0.1096767688E-02   0.2375588678E-02   0.1491877740E-02   0.7788479763E-04   0.0000000000E+00   0.0000000000E+00   0.3635044338E+01   0.3088711893E+01   0.0000000000E+00  -0.2959953443E+00
   0.1090630739E-02   0.1953988634E-02   0.1490941587E-02   0.7188140424E-04   0.0000000000E+00   0.0000000000E+00   0.4020516283E+01   0.3417849540E+01   0.0000000000E+00  -0.4026724489E+00
   0.1210622198E-02   0.1660315886E-02   0.1493150193E-02   0.6634810628E-04   0.0000000000E+00   0.0000000000E+00   0.4350159756E+01   0.3785604390E+01   0.0000000000E+00  -0.3661701729E+00
   0.6355128098E-02  -0.2808290666E-02   0.1780914458E-02   0.1723019940E-03   0.0000000000E+00   0.0000000000E+00   0.1246137151E+01   0.9326375364E+00   0.0000000000E+00  -0.1126767785E+01
   0.6556543376E-02  -0.2171547564E-02   0.1760187416E-02   0.1785993164E-03   0.0000000000E+00   0.0000000000E+00   0.1528956591E+01   0.7992791608E+00   0.0000000000E+00  -0.1162746695E+01
   0.4173433164E-02  -0.1919716786E-03   0.1643978744E-02   0.1281340764E-03   0.0000000000E+00   0.0000000000E+00   0.3090298484E+01   0.9839644649E+00   0.0000000000E+00  -0.1436668976E+01
  -0.1336967228E-02  -0.9444443498E-03   0.1318958462E-02   0.1320267102E-03   0.0000000000E+00   0.0000000000E+00   0.2277563359E+01   0.1183943414E+01   0.0000000000E+00   0.1558443808E+01
  -0.7785044992E-03  -0.7670529585E-03   0.1337680181E-02   0.1174016225E-03   0.0000000000E+00   0.0000000000E+00   0.2566892895E+01   0.1384664755E+01   0.0000000000E+00   0.1799287297E+01
  -0.1914608117E-02  -0.1156502862E-02   0.1300160253E-02   0.1456282380E-03   0.0000000000E+00   0.0000000000E+00   0.2106995306E+01   0.1030669594E+01   0.0000000000E+00   0.1458394264E+01
  -0.2327119969E-02  -0.2177169527E-02   0.1252553851E-02   0.1515038529E-03   0.0000000000E+00   0.0000000000E+00   0.1401942067E+01   0.1043672168E+01   0.0000000000E+00   0.1271885713E+01
   0.1119988451E-01  -0.3467359301E-02   0.1846066140E-02   0.2534292191E-03   0.0000000000E+00   0.0000000000E+00   0.1236630025E+01   0.4537180277E+00   0.0000000000E+00  -0.8308497237E+00
   0.9957164143E-02  -0.3833170862E-02   0.1843947533E-02   0.2351860781E-03   0.0000000000E+00   0.0000000000E+00   0.1166060121E+01   0.5756260110E+00   0.0000000000E+00  -0.8812734992E+00
   0.1087706384E-01  -0.4788740914E-02   0.1876347111E-02   0.2481095459E-03   0.0000000000E+00   0.0000000000E+00   0.1010743972E+01   0.5328597413E+00   0.0000000000E+00  -0.8137620193E+00
  -0.3241064000E-02  -0.1295429562E-02   0.1274436270E-02   0.1734903579E-03   0.0000000000E+00   0.0000000000E+00   0.1930663360E+01   0.7499139785E+00   0.0000000000E+00   0.1212994788E+01
  -0.2980671767E-02  -0.1982380791E-02   0.1253180723E-02   0.1671945990E-03   0.0000000000E+00   0.0000000000E+00   0.1570712993E+01   0.9049040252E+00   0.0000000000E+00   0.1231565821E+01
  -0.2584384982E-02  -0.1488075222E-02   0.1276936618E-02   0.1599424478E-03   0.0000000000E+00   0.0000000000E+00   0.1867572081E+01   0.9612433407E+00   0.0000000000E+00   0.1334589786E+01
  -0.2494859575E-01  -0.1099795638E-02   0.1028941249E-02   0.4139971423E-03   0.0000000000E+00   0.0000000000E+00   0.1025240763E+01   0.2931334792E-01   0.0000000000E+00   0.3468889059E+00
  -0.1969947392E-01  -0.4039936791E-02   0.1036061882E-02   0.3789010491E-03   0.0000000000E+00   0.0000000000E+00   0.1012250555E+01   0.1309249806E+00   0.0000000000E+00   0.4767186770E+00
  -0.2475360396E-01  -0.4291944742E-02   0.9896384381E-03   0.4227221276E-03   0.0000000000E+00   0.0000000000E+00   0.9306007806E+00   0.7827915335E-01   0.0000000000E+00   0.3920861300E+00
  -0.2213176007E-01  -0.5762685891E-02   0.9904835309E-03   0.4045033287E-03   0.0000000000E+00   0.0000000000E+00   0.9132870709E+00   0.1232114923E+00   0.0000000000E+00   0.4459102283E+00
  -0.2232274338E-01  -0.2568891141E-02   0.1033793022E-02   0.3974241086E-03   0.0000000000E+00   0.0000000000E+00   0.1029651406E+01   0.8445871455E-01   0.0000000000E+00   0.4076222334E+00
   0.1015656693E-01  -0.2779588623E-02   0.1818227297E-02   0.2384152671E-03   0.0000000000E+00   0.0000000000E+00   0.1354778038E+01   0.4624753963E+00   0.0000000000E+00  -0.8690282876E+00
   0.8913135694E-02  -0.3146270161E-02   0.1815397364E-02   0.2193021493E-03   0.0000000000E+00   0.0000000000E+00   0.1279216107E+01   0.6097869169E+00   0.0000000000E+00  -0.9506494242E+00
  -0.7382872115E-02  -0.3081566333E-02   0.1171636795E-02   0.2417739874E-03   0.0000000000E+00   0.0000000000E+00   0.1306151331E+01   0.5004361204E+00   0.0000000000E+00   0.8616697936E+00
  -0.7532698112E-02  -0.2123446048E-02   0.1193934108E-02   0.2430045717E-03   0.0000000000E+00   0.0000000000E+00   0.1449330790E+01   0.3966376999E+00   0.0000000000E+00   0.8274039952E+00
  -0.7185289647E-02  -0.4505053016E-02   0.1136284313E-02   0.2379148838E-03   0.0000000000E+00   0.0000000000E+00   0.1026166418E+01   0.5494814518E+00   0.0000000000E+00   0.8441886221E+00
   0.1320345208E-01  -0.1164473063E-01   0.2048765081E-02   0.2686005718E-03   0.0000000000E+00   0.0000000000E+00   0.3636599556E+00   0.3938145188E+00   0.0000000000E+00  -0.4334027844E+00
   0.1370443105E-01  -0.5360135321E-02   0.1911373646E-02   0.2867994092E-03   0.0000000000E+00   0.0000000000E+00   0.9967738167E+00   0.4035309744E+00   0.0000000000E+00  -0.7231920013E+00
   0.1245334575E-01  -0.4413311206E-02   0.1879908347E-02   0.2705503044E-03   0.0000000000E+00   0.0000000000E+00   0.1093623998E+01   0.4121085439E+00   0.0000000000E+00  -0.7624301933E+00
   0.1212892112E-01  -0.5734618542E-02   0.1908585321E-02   0.2653051379E-03   0.0000000000E+00   0.0000000000E+00   0.9179939765E+00   0.4986658798E+00   0.0000000000E+00  -0.7483512649E+00
  -0.1151320148E-01  -0.3907470499E-02   0.1112578517E-02   0.2957237908E-03   0.0000000000E+00   0.0000000000E+00   0.1148054356E+01   0.3156950436E+00   0.0000000000E+00   0.6925690607E+00
  -0.9854259077E-02  -0.4605632832E-02   0.1112261723E-02   0.2758152783E-03   0.0000000000E+00   0.0000000000E+00   0.1079096323E+01   0.4278161756E+00   0.0000000000E+00   0.7494475207E+00
  -0.8398304437E-02  -0.3883863721E-02   0.1141892073E-02   0.2562101788E-03   0.0000000000E+00   0.0000000000E+00   0.1170867250E+01   0.4696858817E+00   0.0000000000E+00   0.8145127632E+00
  -0.1005748805E-01  -0.3184520385E-02   0.1141967647E-02   0.2773001548E-03   0.0000000000E+00   0.0000000000E+00   0.1235432897E+01   0.3265962931E+00   0.0000000000E+00   0.7269551275E+00
  -0.9453411140E-02  -0.6412336584E-02   0.1073250660E-02   0.2690768056E-03   0.0000000000E+00   0.0000000000E+00   0.8238185512E+00   0.4690842652E+00   0.0000000000E+00   0.7140136186E+00
   0.1398859421E-01  -0.1011307638E-01   0.2017711006E-02   0.2843159219E-03   0.0000000000E+00   0.0000000000E+00   0.5050714636E+00   0.4206501679E+00   0.0000000000E+00  -0.5350801360E+00
   0.2130353514E-01  -0.1941093684E-02   0.1919262737E-02   0.3601205759E-03   0.0000000000E+00   0.0000000000E+00   0.1127568173E+01   0.1079248123E+00   0.0000000000E+00  -0.4635064807E+00
   0.1726952117E-01   0.4920599830E-04   0.1844591567E-02   0.3142271663E-03   0.0000000000E+00   0.0000000000E+00   0.1349286736E+01   0.1216891743E+00   0.0000000000E+00  -0.4823625599E+00
   0.1727663927E-01  -0.3967205646E-02   0.1914151167E-02   0.3263134236E-03   0.0000000000E+00   0.0000000000E+00   0.1099822802E+01   0.2333134123E+00   0.0000000000E+00  -0.6025116109E+00
   0.1928780139E-01  -0.9452675012E-03   0.1883200389E-02   0.3378501888E-03   0.0000000000E+00   0.0000000000E+00   0.1225112089E+01   0.1100962287E+00   0.0000000000E+00  -0.4691523031E+00
   0.1727211793E-01  -0.1958012706E-02   0.1878409129E-02   0.3212575038E-03   0.0000000000E+00   0.0000000000E+00   0.1225257105E+01   0.1780502413E+00   0.0000000000E+00  -0.5515065527E+00
   0.1928894639E-01  -0.2953184150E-02   0.1915567092E-02   0.3441825197E-03   0.0000000000E+00   0.0000000000E+00   0.1126791229E+01   0.1745410269E+00   0.0000000000E+00  -0.5293662457E+00
  -0.1110801513E-01  -0.5711300036E-02   0.1077905866E-02   0.2918595236E-03   0.0000000000E+00   0.0000000000E+00   0.9591875467E+00   0.3975830189E+00   0.0000000000E+00   0.6989182862E+00
  -0.1217188592E-01  -0.9033725942E-02   0.1000598983E-02   0.3028741378E-03   0.0000000000E+00   0.0000000000E+00   0.6506456406E+00   0.3971269835E+00   0.0000000000E+00   0.5905600097E+00
   0.1682792597E-01  -0.1769095945E-01   0.2172147770E-02   0.3098388504E-03   0.0000000000E+00   0.0000000000E+00   0.2347886495E+00   0.2679759779E+00   0.0000000000E+00  -0.2872174810E+00
   0.1514290586E-01  -0.6617249525E-02   0.1948614963E-02   0.3046062049E-03   0.0000000000E+00   0.0000000000E+00   0.8788338895E+00   0.3659357539E+00   0.0000000000E+00  -0.6575127232E+00
   0.1321853615E-01  -0.6959477558E-02   0.1943974848E-02   0.2791140025E-03   0.0000000000E+00   0.0000000000E+00   0.7969721006E+00   0.4580537446E+00   0.0000000000E+00  -0.6842488707E+00
   0.1465536168E-01  -0.8216446854E-02   0.1979566882E-02   0.2970652361E-03   0.0000000000E+00   0.0000000000E+00   0.7211005223E+00   0.4271846641E+00   0.0000000000E+00  -0.6243381747E+00
  -0.4331248540E-01  -0.1498904252E-01   0.7438183983E-03   0.5835621798E-03   0.0000000000E+00   0.0000000000E+00   0.6214343856E+00   0.5018522503E-01   0.0000000000E+00   0.2541692239E+00
  -0.3688679780E-01  -0.9423245693E-02   0.8402080019E-03   0.5273576671E-03   0.0000000000E+00   0.0000000000E+00   0.7314995220E+00   0.4249795478E-01   0.0000000000E+00   0.2931770011E+00
  -0.4442373184E-01  -0.5770174056E-02   0.8257451619E-03   0.5678704838E-03   0.0000000000E+00   0.0000000000E+00   0.7514255665E+00  -0.2273369111E-01   0.0000000000E+00   0.2152320658E+00
  -0.4010098896E-01  -0.1220559244E-01   0.7906658423E-03   0.5560115636E-03   0.0000000000E+00   0.0000000000E+00   0.6715563717E+00   0.4386241786E-01   0.0000000000E+00   0.2710422125E+00
  -0.4065412755E-01  -0.7595833100E-02   0.8341138461E-03   0.5484906104E-03   0.0000000000E+00   0.0000000000E+00   0.7469204572E+00   0.1206805780E-01   0.0000000000E+00   0.2526502045E+00
  -0.4386689877E-01  -0.1037821554E-01   0.7859916348E-03   0.5771088587E-03   0.0000000000E+00   0.0000000000E+00   0.6858414019E+00   0.1353184224E-01   0.0000000000E+00   0.2371044664E+00
  -0.1416754404E-01  -0.1465679491E-01   0.8824350560E-03   0.3200864900E-03   0.0000000000E+00   0.0000000000E+00   0.3645205029E+00   0.3295522373E+00   0.0000000000E+00   0.3902580774E+00
  -0.1527766137E-01  -0.1256020607E-01   0.9184256319E-03   0.3379801309E-03   0.0000000000E+00   0.0000000000E+00   0.5015624145E+00   0.3332231363E+00   0.0000000000E+00   0.4735780197E+00
   0.2117172048E-01  -0.2013157029E-01   0.2219740082E-02   0.3630249141E-03   0.0000000000E+00   0.0000000000E+00   0.2672775264E+00   0.2556036192E+00   0.0000000000E+00  -0.2872171953E+00
   0.1838717659E-01  -0.1999992375E-01   0.2213633194E-02   0.3273872550E-03   0.0000000000E+00   0.0000000000E+00   0.2083255035E+00   0.2327196830E+00   0.0000000000E+00  -0.2443025074E+00
   0.1692011763E-01  -0.2257093451E-01   0.2254137730E-02   0.3037113905E-03   0.0000000000E+00   0.0000000000E+00   0.1114782865E+00   0.1640687154E+00   0.0000000000E+00  -0.1555695147E+00
   0.1970291330E-01  -0.2270113462E-01   0.2258496403E-02   0.3407953768E-03   0.0000000000E+00   0.0000000000E+00   0.1806186461E+00   0.2052176594E+00   0.0000000000E+00  -0.2100851313E+00
   0.3088633249E-01  -0.2153223660E-02   0.2010005487E-02   0.4407276405E-03   0.0000000000E+00   0.0000000000E+00   0.9545017257E+00   0.2338838219E-01   0.0000000000E+00  -0.3278753526E+00
   0.2565224883E-01  -0.4679321714E-02   0.1998283434E-02   0.4063281860E-03   0.0000000000E+00   0.0000000000E+00   0.9487720333E+00   0.1050779512E+00   0.0000000000E+00  -0.4318811724E+00
   0.3027188248E-01  -0.8063149811E-02   0.2079013976E-02   0.4522388888E-03   0.0000000000E+00   0.0000000000E+00   0.8048850409E+00   0.1053205526E+00   0.0000000000E+00  -0.3908048145E+00
   0.2826838221E-01  -0.3415509611E-02   0.2003236005E-02   0.4242909886E-03   0.0000000000E+00   0.0000000000E+00   0.9586974579E+00   0.6681718632E-01   0.0000000000E+00  -0.3774376909E+00
   0.2796322996E-01  -0.6370733919E-02   0.2039813964E-02   0.4297853805E-03   0.0000000000E+00   0.0000000000E+00   0.8697113434E+00   0.1014834926E+00   0.0000000000E+00  -0.4075245694E+00
   0.3057811358E-01  -0.5107177844E-02   0.2043514978E-02   0.4474921563E-03   0.0000000000E+00   0.0000000000E+00   0.8794042446E+00   0.6367238423E-01   0.0000000000E+00  -0.3629024884E+00
  -0.1021605411E+00  -0.3808157367E-01   0.3198029174E-03   0.9448245314E-03   0.0000000000E+00   0.0000000000E+00   0.3734093945E+00  -0.3114788423E-01   0.0000000000E+00   0.6899051647E-01
  -0.1165235503E+00  -0.3667005705E-01   0.2754167245E-03   0.9964015466E-03   0.0000000000E+00   0.0000000000E+00   0.3725948684E+00  -0.4024378588E-01   0.0000000000E+00   0.5041692074E-01
  -0.1097983000E+00  -0.5139826527E-01   0.2322540102E-03   0.9948657277E-03   0.0000000000E+00   0.0000000000E+00   0.2809103799E+00  -0.2130083831E-01   0.0000000000E+00   0.6346228148E-01
  -0.1093418368E+00  -0.3737459781E-01   0.2978232117E-03   0.9718305883E-03   0.0000000000E+00   0.0000000000E+00   0.3726178433E+00  -0.3579525249E-01   0.0000000000E+00   0.5926669504E-01
  -0.1131591840E+00  -0.4403288223E-01   0.2555799956E-03   0.9969144679E-03   0.0000000000E+00   0.0000000000E+00   0.3268055770E+00  -0.3104842352E-01   0.0000000000E+00   0.5694881314E-01
  -0.1059808819E+00  -0.4473888535E-01   0.2745671300E-03   0.9708810453E-03   0.0000000000E+00   0.0000000000E+00   0.3274009793E+00  -0.2590161065E-01   0.0000000000E+00   0.6626438138E-01
  -0.1547623121E-01  -0.1705464590E-01   0.8365020935E-03   0.3334072969E-03   0.0000000000E+00   0.0000000000E+00   0.3069742913E+00   0.2899454508E+00   0.0000000000E+00   0.3366402626E+00
  -0.2973210210E-01  -0.1197806045E-01   0.8547199024E-03   0.4787608471E-03   0.0000000000E+00   0.0000000000E+00   0.6903018014E+00   0.1276201612E+00   0.0000000000E+00   0.3708118390E+00
  -0.2638562849E-01  -0.1281445994E-01   0.8624151065E-03   0.4518035560E-03   0.0000000000E+00   0.0000000000E+00   0.6601466437E+00   0.1813930425E+00   0.0000000000E+00   0.4021558164E+00
  -0.2714805793E-01  -0.9731824429E-02   0.8998277712E-03   0.4543560708E-03   0.0000000000E+00   0.0000000000E+00   0.7550068589E+00   0.1222657192E+00   0.0000000000E+00   0.3935161313E+00
   0.9990221014E-02  -0.3998042849E-01   0.2486904744E-02   0.2129616063E-03   0.0000000000E+00   0.0000000000E+00   0.1542048755E-02  -0.1153192813E+00   0.0000000000E+00   0.2332941380E-01
   0.4184749797E-01  -0.3808988505E-01   0.2487771972E-02   0.5604600516E-03   0.0000000000E+00   0.0000000000E+00   0.2287344628E+00   0.1386521525E+00   0.0000000000E+00  -0.1440989155E+00
   0.4319537725E-01  -0.3394094691E-01   0.2445518151E-02   0.5735696897E-03   0.0000000000E+00   0.0000000000E+00   0.2989464700E+00   0.1396371915E+00   0.0000000000E+00  -0.1818744428E+00
   0.4045006054E-01  -0.3045353524E-01   0.2400396244E-02   0.5507893631E-03   0.0000000000E+00   0.0000000000E+00   0.3285500147E+00   0.1535287854E+00   0.0000000000E+00  -0.2085339784E+00
   0.3910409794E-01  -0.3460281487E-01   0.2444566637E-02   0.5373418285E-03   0.0000000000E+00   0.0000000000E+00   0.2470713623E+00   0.1491642026E+00   0.0000000000E+00  -0.1676642235E+00
   0.2314076078E-02   0.1813163702E-02   0.1519423752E-02   0.7440774210E-04   0.0000000000E+00   0.0000000000E+00   0.4362264592E+01   0.3203144955E+01   0.0000000000E+00   0.7464903553E+00
   0.1936095043E-02   0.3665339086E-02   0.1507208192E-02   0.9344762573E-04   0.0000000000E+00   0.0000000000E+00   0.2878792513E+01   0.2419741468E+01   0.0000000000E+00   0.1700566165E+00
   0.1470743760E-02   0.3583697575E-02   0.1499512198E-02   0.9191406454E-04   0.0000000000E+00   0.0000000000E+00   0.2924205006E+01   0.2446906696E+01   0.0000000000E+00  -0.8448934401E-02
   0.1690733116E-02   0.3185141986E-02   0.1503331471E-02   0.8752538608E-04   0.0000000000E+00   0.0000000000E+00   0.3081662487E+01   0.2643346119E+01   0.0000000000E+00   0.7079559215E-01
  -0.2807566761E-02   0.3358548671E-02   0.1407941009E-02   0.1445912507E-03   0.0000000000E+00   0.0000000000E+00   0.3050676212E+01   0.8425193118E+00   0.0000000000E+00  -0.2326508747E+00
  -0.4933164059E-02   0.1838517287E-02   0.1329753481E-02   0.1902972868E-03   0.0000000000E+00   0.0000000000E+00   0.2407751224E+01   0.3279858126E+00   0.0000000000E+00   0.4608527345E+00
  -0.2786867660E-02   0.1540998810E-02   0.1371198460E-02   0.1538770700E-03   0.0000000000E+00   0.0000000000E+00   0.2998087849E+01   0.5274124218E+00   0.0000000000E+00   0.4537093071E+00
  -0.3870216606E-02   0.2598839327E-02   0.1368996284E-02   0.1677507370E-03   0.0000000000E+00   0.0000000000E+00   0.2779654201E+01   0.5340684513E+00   0.0000000000E+00   0.1621430968E+00
  -0.3861105609E-02   0.1690701511E-02   0.1349386221E-02   0.1730305807E-03   0.0000000000E+00   0.0000000000E+00   0.2644356310E+01   0.3941371343E+00   0.0000000000E+00   0.4731927666E+00
  -0.2795094091E-02   0.2449295397E-02   0.1391692619E-02   0.1487558775E-03   0.0000000000E+00   0.0000000000E+00   0.3059124232E+01   0.6926531245E+00   0.0000000000E+00   0.8973786072E-01
  -0.1090541979E-01   0.1483060284E-02   0.1222978006E-02   0.2718764435E-03   0.0000000000E+00   0.0000000000E+00   0.1621859147E+01   0.1609515319E+00   0.0000000000E+00   0.4646696205E+00
  -0.9106921312E-02   0.1832288189E-02   0.1255860288E-02   0.2487543589E-03   0.0000000000E+00   0.0000000000E+00   0.1803957467E+01   0.2057122013E+00   0.0000000000E+00   0.4591375131E+00
  -0.2450112474E-03   0.9198222474E-03   0.1430777063E-02   0.9664060137E-04   0.0000000000E+00   0.0000000000E+00   0.4952313209E+01   0.1243211547E+01   0.0000000000E+00   0.2038858484E+00
   0.3639610592E-02   0.8491286709E-03   0.1586260382E-02   0.1087210539E-03   0.0000000000E+00   0.0000000000E+00   0.4292222649E+01   0.9034986569E+00   0.0000000000E+00  -0.5741112190E+00
   0.3419624347E-02   0.5325023138E-03   0.1590400757E-02   0.1046671588E-03   0.0000000000E+00   0.0000000000E+00   0.4398988306E+01   0.1001634046E+01   0.0000000000E+00  -0.9186385386E+00
   0.9527726903E-02   0.9075986033E-03   0.1720602493E-02   0.2192421393E-03   0.0000000000E+00   0.0000000000E+00   0.1989254223E+01   0.3062766647E+00   0.0000000000E+00  -0.6096446132E+00
   0.1060589348E-01   0.6151670947E-03   0.1744510061E-02   0.2353155997E-03   0.0000000000E+00   0.0000000000E+00   0.1837465901E+01   0.2665985476E+00   0.0000000000E+00  -0.6121213477E+00
   0.4286065530E-02  -0.6980788193E-03   0.1668811140E-02   0.1312372747E-03   0.0000000000E+00   0.0000000000E+00   0.2542975771E+01   0.1053481991E+01   0.0000000000E+00  -0.1584128651E+01
   0.4658459095E-02  -0.4254127289E-03   0.1664884965E-02   0.1400154411E-03   0.0000000000E+00   0.0000000000E+00   0.2694745272E+01   0.8988691776E+00   0.0000000000E+00  -0.1399214193E+01
  -0.6096523158E-03   0.7131234988E-04   0.1383098364E-02   0.1126815968E-03   0.0000000000E+00   0.0000000000E+00   0.3780267168E+01   0.1017770873E+01   0.0000000000E+00   0.1422237345E+01
  -0.2571977939E-02  -0.9628733587E-03   0.1296968871E-02   0.1601598713E-03   0.0000000000E+00   0.0000000000E+00   0.2141797201E+01   0.7734551559E+00   0.0000000000E+00   0.1265311449E+01
   0.5345381304E-02  -0.1276416430E-02   0.1711342224E-02   0.1551240396E-03   0.0000000000E+00   0.0000000000E+00   0.1976704327E+01   0.8999744047E+00   0.0000000000E+00  -0.1348129120E+01
   0.7400841153E-02  -0.9982749585E-03   0.1733829903E-02   0.1939050115E-03   0.0000000000E+00   0.0000000000E+00   0.1916055823E+01   0.5548417106E+00   0.0000000000E+00  -0.1023480541E+01
   0.7295292880E-02  -0.1859235068E-02   0.1758783200E-02   0.1927805515E-03   0.0000000000E+00   0.0000000000E+00   0.1640315385E+01   0.6748167066E+00   0.0000000000E+00  -0.1087089164E+01
   0.8150270459E-02  -0.2406256814E-02   0.1785835499E-02   0.2072785659E-03   0.0000000000E+00   0.0000000000E+00   0.1479619042E+01   0.6533201241E+00   0.0000000000E+00  -0.1020657321E+01
   0.8257033996E-02  -0.1545007030E-02   0.1762097466E-02   0.2086926997E-03   0.0000000000E+00   0.0000000000E+00   0.1689807358E+01   0.5144128017E+00   0.0000000000E+00  -0.9619817264E+00
   0.5332186022E-02   0.9930582245E-03   0.1632199992E-02   0.1481990555E-03   0.0000000000E+00   0.0000000000E+00   0.3081122267E+01   0.5533822162E+00   0.0000000000E+00  -0.6755656861E+00
   0.4811105132E-02   0.1488575468E-02   0.1603998522E-02   0.1336802879E-03   0.0000000000E+00   0.0000000000E+00   0.3505158882E+01   0.7591587731E+00   0.0000000000E+00  -0.3084259960E+00
   0.4676091728E-02   0.9483814022E-03   0.1615716388E-02   0.1341451092E-03   0.0000000000E+00   0.0000000000E+00   0.3418005674E+01   0.6230264484E+00   0.0000000000E+00  -0.6721458951E+00
  -0.3243993345E-02   0.2148665363E-03   0.1323448185E-02   0.1700690473E-03   0.0000000000E+00   0.0000000000E+00   0.2499697714E+01   0.5005840013E+00   0.0000000000E+00   0.9245326864E+00
  -0.3241624758E-02  -0.5394656516E-03   0.1299845912E-02   0.1725955324E-03   0.0000000000E+00   0.0000000000E+00   0.2220226828E+01   0.6356609114E+00   0.0000000000E+00   0.1103627175E+01
  -0.2571012942E-02  -0.2073112978E-03   0.1323904728E-02   0.1588632892E-03   0.0000000000E+00   0.0000000000E+00   0.2545141893E+01   0.7024778665E+00   0.0000000000E+00   0.1136451623E+01
  -0.3912808467E-02  -0.1840744219E-02   0.1246718133E-02   0.1859133514E-03   0.0000000000E+00   0.0000000000E+00   0.1674304460E+01   0.7018046467E+00   0.0000000000E+00   0.1123793570E+01
   0.1402199850E-01  -0.2052303539E-02   0.1844802204E-02   0.2864250909E-03   0.0000000000E+00   0.0000000000E+00   0.1333403893E+01   0.2567691204E+00   0.0000000000E+00  -0.6627750426E+00
   0.1260961179E-01  -0.2758664102E-02   0.1844103994E-02   0.2710944780E-03   0.0000000000E+00   0.0000000000E+00   0.1309381660E+01   0.3594407554E+00   0.0000000000E+00  -0.7434393591E+00
   0.1386221536E-01  -0.3705096260E-02   0.1877088455E-02   0.2877355401E-03   0.0000000000E+00   0.0000000000E+00   0.1167891656E+01   0.3359658649E+00   0.0000000000E+00  -0.7063110683E+00
  -0.5053011024E-02  -0.5250638982E-03   0.1269216396E-02   0.2032206348E-03   0.0000000000E+00   0.0000000000E+00   0.1963184381E+01   0.4387470787E+00   0.0000000000E+00   0.9007854607E+00
  -0.4816336122E-02  -0.1454855900E-02   0.1246554278E-02   0.2014840699E-03   0.0000000000E+00   0.0000000000E+00   0.1726991797E+01   0.5655113207E+00   0.0000000000E+00   0.1007191847E+01
  -0.4145997789E-02  -0.9091558550E-03   0.1272866291E-02   0.1894463450E-03   0.0000000000E+00   0.0000000000E+00   0.1983511103E+01   0.6024263932E+00   0.0000000000E+00   0.1047235848E+01
  -0.7117661770E-02  -0.6706671125E-03   0.1234143850E-02   0.2338554905E-03   0.0000000000E+00   0.0000000000E+00   0.1697766561E+01   0.3533103993E+00   0.0000000000E+00   0.7633677174E+00
   0.1259354347E-01  -0.1412861833E-02   0.1814989672E-02   0.2678457266E-03   0.0000000000E+00   0.0000000000E+00   0.1450745380E+01   0.2660655734E+00   0.0000000000E+00  -0.6840378250E+00
   0.1118052457E-01  -0.2120049221E-02   0.1813660229E-02   0.2516882790E-03   0.0000000000E+00   0.0000000000E+00   0.1431141921E+01   0.3826971797E+00   0.0000000000E+00  -0.7922356204E+00
  -0.3732540754E-01  -0.8877033927E-03   0.9250834571E-03   0.5045350273E-03   0.0000000000E+00   0.0000000000E+00   0.8721831935E+00  -0.3436562161E-01   0.0000000000E+00   0.2294923697E+00
  -0.3078662496E-01  -0.4744454131E-02   0.9358722436E-03   0.4708731295E-03   0.0000000000E+00   0.0000000000E+00   0.8640107211E+00   0.3333174407E-01   0.0000000000E+00   0.3252167093E+00
  -0.3710490618E-01  -0.5154141735E-02   0.8838422165E-03   0.5172793345E-03   0.0000000000E+00   0.0000000000E+00   0.8010412291E+00   0.3493006382E-02   0.0000000000E+00   0.2643498185E+00
  -0.3383810407E-01  -0.7083213707E-02   0.8866455349E-03   0.4997516026E-03   0.0000000000E+00   0.0000000000E+00   0.7916047514E+00   0.3545361417E-01   0.0000000000E+00   0.3066168734E+00
  -0.3405487598E-01  -0.2815301765E-02   0.9316200188E-03   0.4884810151E-03   0.0000000000E+00   0.0000000000E+00   0.8747977106E+00   0.2769964257E-02   0.0000000000E+00   0.2746573036E+00
   0.1565055267E-01  -0.3009188714E-02   0.1880709968E-02   0.3069352564E-03   0.0000000000E+00   0.0000000000E+00   0.1198848906E+01   0.2359027692E+00   0.0000000000E+00  -0.6243598149E+00
   0.1548919779E-01  -0.4662348100E-02   0.1911425488E-02   0.3078788000E-03   0.0000000000E+00   0.0000000000E+00   0.1068921669E+01   0.3217838746E+00   0.0000000000E+00  -0.6623361139E+00
  -0.1526940704E-01  -0.1666070010E-02   0.1115997362E-02   0.3303919905E-03   0.0000000000E+00   0.0000000000E+00   0.1220297352E+01   0.1461524587E+00   0.0000000000E+00   0.5216896761E+00
  -0.1338961058E-01  -0.2785462787E-02   0.1115981622E-02   0.3143652430E-03   0.0000000000E+00   0.0000000000E+00   0.1203979941E+01   0.2343921623E+00   0.0000000000E+00   0.6025537086E+00
  -0.1144028262E-01  -0.2081005053E-02   0.1149963684E-02   0.2912374569E-03   0.0000000000E+00   0.0000000000E+00   0.1314512570E+01   0.2547935921E+00   0.0000000000E+00   0.6447492428E+00
  -0.1332062664E-01  -0.9606660118E-03   0.1149431864E-02   0.3082103582E-03   0.0000000000E+00   0.0000000000E+00   0.1321376092E+01   0.1534456627E+00   0.0000000000E+00   0.5376763892E+00
  -0.1282029179E-01  -0.6837438045E-02   0.1042265912E-02   0.3127798448E-03   0.0000000000E+00   0.0000000000E+00   0.8766351730E+00   0.3700997710E+00   0.0000000000E+00   0.6427537934E+00
  -0.1322738580E-01  -0.5033630497E-02   0.1075030895E-02   0.3166221133E-03   0.0000000000E+00   0.0000000000E+00   0.1023604479E+01   0.2821656420E+00   0.0000000000E+00   0.6356859040E+00
   0.2088233471E-01  -0.6578366634E-02   0.1989407612E-02   0.3670194260E-03   0.0000000000E+00   0.0000000000E+00   0.9073854121E+00   0.2176655935E+00   0.0000000000E+00  -0.5379734676E+00
   0.1908073352E-01  -0.5272276714E-02   0.1953025916E-02   0.3471756160E-03   0.0000000000E+00   0.0000000000E+00   0.9902775528E+00   0.2174275116E+00   0.0000000000E+00  -0.5625737160E+00
   0.1692665836E-01  -0.5919946340E-02   0.1947651658E-02   0.3252015604E-03   0.0000000000E+00   0.0000000000E+00   0.9510857734E+00   0.3006902399E+00   0.0000000000E+00  -0.6209912092E+00
   0.1872930771E-01  -0.7225361690E-02   0.1985081510E-02   0.3457199395E-03   0.0000000000E+00   0.0000000000E+00   0.8704328954E+00   0.2908662342E+00   0.0000000000E+00  -0.5794760013E+00
  -0.1731763300E-01  -0.5098973510E-02   0.1039662498E-02   0.3591006502E-03   0.0000000000E+00   0.0000000000E+00   0.9938299872E+00   0.2077375868E+00   0.0000000000E+00   0.5385194528E+00
  -0.1510297709E-01  -0.3912163674E-02   0.1079251810E-02   0.3347226761E-03   0.0000000000E+00   0.0000000000E+00   0.1084136881E+01   0.2159313308E+00   0.0000000000E+00   0.5740147970E+00
  -0.1748586864E-01  -0.2852316686E-02   0.1074600556E-02   0.3553333540E-03   0.0000000000E+00   0.0000000000E+00   0.1100546913E+01   0.1310370787E+00   0.0000000000E+00   0.4928266902E+00
   0.5274618197E-01  -0.2748655493E-01   0.2408427771E-02   0.6447195666E-03   0.0000000000E+00   0.0000000000E+00   0.4440293811E+00   0.8272343730E-01   0.0000000000E+00  -0.2018011125E+00
   0.5456028412E-01  -0.1895030245E-01   0.2336981722E-02   0.6451361458E-03   0.0000000000E+00   0.0000000000E+00   0.5603324613E+00   0.3322089035E-01   0.0000000000E+00  -0.2050975740E+00
   0.5365236375E-01  -0.2321732483E-01   0.2371835447E-02   0.6460317657E-03   0.0000000000E+00   0.0000000000E+00   0.5022262535E+00   0.5917605947E-01   0.0000000000E+00  -0.2054387028E+00
   0.5052483373E-01  -0.2029096740E-01   0.2329859030E-02   0.6209533965E-03   0.0000000000E+00   0.0000000000E+00   0.5413726733E+00   0.6347724139E-01   0.0000000000E+00  -0.2260827427E+00
   0.4961992109E-01  -0.2455982312E-01   0.2367720586E-02   0.6200156798E-03   0.0000000000E+00   0.0000000000E+00   0.4748778695E+00   0.8450108457E-01   0.0000000000E+00  -0.2214829642E+00
   0.1961304887E-01  -0.1782116447E-01   0.2178833668E-02   0.3469180319E-03   0.0000000000E+00   0.0000000000E+00   0.2960316667E+00   0.2760789267E+00   0.0000000000E+00  -0.3238342082E+00
   0.2224235856E-01  -0.1757592246E-01   0.2180675657E-02   0.3792503379E-03   0.0000000000E+00   0.0000000000E+00   0.3853267357E+00   0.2740402759E+00   0.0000000000E+00  -0.3610559068E+00
   0.3080217583E-01   0.3959049125E-02   0.1940126032E-02   0.4159190051E-03   0.0000000000E+00   0.0000000000E+00   0.1084772598E+01  -0.3232560015E-01   0.0000000000E+00  -0.2264677495E+00
   0.2580408677E-01   0.7101238127E-03   0.1927680473E-02   0.3895649977E-03   0.0000000000E+00   0.0000000000E+00   0.1116051842E+01   0.2338508405E-01   0.0000000000E+00  -0.3353980387E+00
   0.2830237513E-01   0.2335101385E-02   0.1933146130E-02   0.4032568751E-03   0.0000000000E+00   0.0000000000E+00   0.1107036901E+01  -0.3348031794E-03   0.0000000000E+00  -0.2771134598E+00
   0.2834639654E-01  -0.7209089756E-03   0.1970029938E-02   0.4157872244E-03   0.0000000000E+00   0.0000000000E+00   0.1028703147E+01   0.2182408545E-01   0.0000000000E+00  -0.3299563325E+00
   0.3084331281E-01   0.9036892703E-03   0.1974123513E-02   0.4290998593E-03   0.0000000000E+00   0.0000000000E+00   0.1018301985E+01  -0.6392805991E-02   0.0000000000E+00  -0.2802865051E+00
  -0.5181683548E-01  -0.1159043270E-01   0.7264992181E-03   0.6305748965E-03   0.0000000000E+00   0.0000000000E+00   0.6498824572E+00  -0.1025079431E-01   0.0000000000E+00   0.1923164442E+00
  -0.5010610298E-01  -0.2162103425E-01   0.6454937151E-03   0.6401475507E-03   0.0000000000E+00   0.0000000000E+00   0.5253116996E+00   0.5480801824E-01   0.0000000000E+00   0.2125422386E+00
  -0.5096024381E-01  -0.1660428636E-01   0.6872218943E-03   0.6368079359E-03   0.0000000000E+00   0.0000000000E+00   0.5871492418E+00   0.2234966491E-01   0.0000000000E+00   0.2044867336E+00
  -0.4671064485E-01  -0.1830453805E-01   0.6933053487E-03   0.6123557496E-03   0.0000000000E+00   0.0000000000E+00   0.5690625878E+00   0.4992691561E-01   0.0000000000E+00   0.2307801341E+00
  -0.4756353154E-01  -0.1328876680E-01   0.7362876564E-03   0.6080394030E-03   0.0000000000E+00   0.0000000000E+00   0.6402226459E+00   0.2154432221E-01   0.0000000000E+00   0.2224701238E+00
  -0.1786377546E-01  -0.1197723322E-01   0.9183969385E-03   0.3687960789E-03   0.0000000000E+00   0.0000000000E+00   0.6055205897E+00   0.2954366759E+00   0.0000000000E+00   0.4851543457E+00
   0.1125845460E+00  -0.8298312796E-01   0.2913526987E-02   0.1016923043E-02   0.0000000000E+00   0.0000000000E+00   0.5525150705E-01  -0.1661292580E-02   0.0000000000E+00  -0.3673590644E-01
   0.1029903845E+00  -0.9902723319E-01   0.2990383477E-02   0.9727678140E-03   0.0000000000E+00   0.0000000000E+00  -0.8723978465E-01   0.1418646947E-03   0.0000000000E+00  -0.1796096622E-02
   0.1229793160E+00  -0.9894296869E-01   0.2979318965E-02   0.1057032308E-02   0.0000000000E+00   0.0000000000E+00  -0.3401816725E-01   0.5145077100E-03   0.0000000000E+00  -0.1592558827E-02
   0.1077851870E+00  -0.9100305654E-01   0.2949677010E-02   0.9969659640E-03   0.0000000000E+00   0.0000000000E+00  -0.1560187386E-01  -0.7239959944E-04   0.0000000000E+00  -0.1919179522E-01
   0.1129836781E+00  -0.9898180922E-01   0.2983679090E-02   0.1018191780E-02   0.0000000000E+00   0.0000000000E+00  -0.6046602483E-01   0.5005604477E-03   0.0000000000E+00  -0.1667320456E-02
   0.1177849161E+00  -0.9096165147E-01   0.2949408112E-02   0.1038371033E-02   0.0000000000E+00   0.0000000000E+00   0.9121408852E-02  -0.1359092739E-02   0.0000000000E+00  -0.1851865843E-01
  -0.3330821358E-01  -0.1069949777E-01   0.8487012179E-03   0.5042141342E-03   0.0000000000E+00   0.0000000000E+00   0.7188100024E+00   0.8726261553E-01   0.0000000000E+00   0.3310702347E+00
  -0.3025802261E-01  -0.8359800753E-02   0.8966359902E-03   0.4762730474E-03   0.0000000000E+00   0.0000000000E+00   0.7768273104E+00   0.8064947760E-01   0.0000000000E+00   0.3521527499E+00
  -0.4120440316E-01  -0.6352505499E-01   0.2583945386E-03   0.5700994133E-03   0.0000000000E+00   0.0000000000E+00   0.4190461134E-01   0.5298415507E-01   0.0000000000E+00  -0.3750939735E-02
  -0.3162075176E-01  -0.8026018738E-01   0.1073110381E-03   0.4751459212E-03   0.0000000000E+00   0.0000000000E+00  -0.2634343769E-01   0.5533299342E-02   0.0000000000E+00  -0.4366055406E-01
  -0.3641243543E-01  -0.7189259855E-01   0.1829947735E-03   0.5226490458E-03   0.0000000000E+00   0.0000000000E+00   0.4761847364E-02   0.2644932816E-01   0.0000000000E+00  -0.2456169820E-01
  -0.2812644210E-01  -0.7151501632E-01   0.1863528033E-03   0.4433914758E-03   0.0000000000E+00   0.0000000000E+00  -0.9526776949E-02   0.9545891912E-02   0.0000000000E+00  -0.4384333762E-01
  -0.3291654476E-01  -0.6314626132E-01   0.2636175390E-03   0.4920532761E-03   0.0000000000E+00   0.0000000000E+00   0.2275789499E-01   0.3205809022E-01   0.0000000000E+00  -0.2522821394E-01
  -0.1634382282E-01  -0.3177298269E-01   0.6112380803E-03   0.3272925104E-03   0.0000000000E+00   0.0000000000E+00   0.6512139434E-01   0.7041612560E-01   0.0000000000E+00   0.6252547205E-01
  -0.1867023911E-01  -0.2901385539E-01   0.6473766928E-03   0.3582593093E-03   0.0000000000E+00   0.0000000000E+00   0.1050606826E+00   0.1360757950E+00   0.0000000000E+00   0.1176049388E+00
   0.5871326379E-02  -0.2588985705E-03   0.1683889139E-02   0.1648947615E-03   0.0000000000E+00   0.0000000000E+00   0.2431360088E+01   0.6149910982E+00   0.0000000000E+00  -0.1101179112E+01
   0.5894686661E-02  -0.9394939345E-03   0.1707615901E-02   0.1666239155E-03   0.0000000000E+00   0.0000000000E+00   0.2112462616E+01   0.7563064916E+00   0.0000000000E+00  -0.1225146154E+01
   0.6659112109E-02  -0.1308987522E-02   0.1732254569E-02   0.1813237076E-03   0.0000000000E+00   0.0000000000E+00   0.1896994789E+01   0.7209453671E+00   0.0000000000E+00  -0.1147747430E+01
   0.6637205898E-02  -0.6280134948E-03   0.1709981418E-02   0.1799731582E-03   0.0000000000E+00   0.0000000000E+00   0.2133612367E+01   0.5652213528E+00   0.0000000000E+00  -0.1050617236E+01
   0.5663334829E-03   0.2452403674E-02   0.1480826069E-02   0.8327783393E-04   0.0000000000E+00   0.0000000000E+00   0.3646368823E+01   0.2766813756E+01   0.0000000000E+00  -0.5678338206E+00
   0.1061222823E-03   0.5077231708E-02   0.1479595952E-02   0.1103971480E-03   0.0000000000E+00   0.0000000000E+00   0.2510112540E+01   0.1899889974E+01   0.0000000000E+00  -0.3132741669E+00
   0.9954125440E-04   0.3902121316E-02   0.1476633464E-02   0.1013822458E-03   0.0000000000E+00   0.0000000000E+00   0.2905622632E+01   0.2161011515E+01   0.0000000000E+00  -0.4589801941E+00
   0.1144071321E-02   0.4424888520E-02   0.1494568140E-02   0.1007880703E-03   0.0000000000E+00   0.0000000000E+00   0.2624676719E+01   0.2173660969E+01   0.0000000000E+00  -0.1061138727E+00
   0.1029839268E-03   0.4489778298E-02   0.1478266807E-02   0.1059917178E-03   0.0000000000E+00   0.0000000000E+00   0.2704619187E+01   0.2002252500E+01   0.0000000000E+00  -0.3782895860E+00
   0.6223199119E-03   0.4162526922E-02   0.1486114440E-02   0.1001071624E-03   0.0000000000E+00   0.0000000000E+00   0.2754781067E+01   0.2173106718E+01   0.0000000000E+00  -0.2642870512E+00
   0.6249746438E-03   0.4750703524E-02   0.1486959904E-02   0.1052357844E-03   0.0000000000E+00   0.0000000000E+00   0.2562304265E+01   0.2048334185E+01   0.0000000000E+00  -0.2198055332E+00
   0.5319236603E-02  -0.5945716625E-03   0.1684830813E-02   0.1546442285E-03   0.0000000000E+00   0.0000000000E+00   0.2412073727E+01   0.8241554549E+00   0.0000000000E+00  -0.1273833634E+01
   0.6055394011E-02   0.6272269145E-02   0.1567426891E-02   0.1455556748E-03   0.0000000000E+00   0.0000000000E+00   0.2422268553E+01   0.1151383889E+01   0.0000000000E+00   0.4603048841E+00
   0.4224446134E-02   0.4466761116E-02   0.1545313044E-02   0.1189841259E-03   0.0000000000E+00   0.0000000000E+00   0.2835246415E+01   0.1642150500E+01   0.0000000000E+00   0.5501927718E+00
   0.6300115920E-02   0.4008000634E-02   0.1593985090E-02   0.1511251642E-03   0.0000000000E+00   0.0000000000E+00   0.2843952614E+01   0.8469989046E+00   0.0000000000E+00   0.2736527936E+00
   0.5140446410E-02   0.5370298280E-02   0.1556896420E-02   0.1330532796E-03   0.0000000000E+00   0.0000000000E+00   0.2576410568E+01   0.1342392805E+01   0.0000000000E+00   0.4680948229E+00
   0.5261069787E-02   0.4235874158E-02   0.1568437707E-02   0.1335481580E-03   0.0000000000E+00   0.0000000000E+00   0.2920436480E+01   0.1229050594E+01   0.0000000000E+00   0.4545956161E+00
   0.6175598450E-02   0.5138821189E-02   0.1578549240E-02   0.1470267189E-03   0.0000000000E+00   0.0000000000E+00   0.2673868946E+01   0.1047693772E+01   0.0000000000E+00   0.4135598747E+00
   0.2574223434E-02   0.2121485950E-02   0.1524226844E-02   0.8174002995E-04   0.0000000000E+00   0.0000000000E+00   0.4066158247E+01   0.2800974477E+01   0.0000000000E+00   0.7253501640E+00
   0.2775869685E-02   0.2524290090E-02   0.1526605105E-02   0.8839308004E-04   0.0000000000E+00   0.0000000000E+00   0.3715256469E+01   0.2529219737E+01   0.0000000000E+00   0.6524637286E+00
  -0.6028937095E-02   0.8106796069E-02   0.1395457035E-02   0.1801727295E-03   0.0000000000E+00   0.0000000000E+00   0.2117446147E+01   0.7173117718E+00   0.0000000000E+00  -0.3412914002E+00
  -0.5469408984E-02   0.4777541986E-02   0.1371032396E-02   0.1826595058E-03   0.0000000000E+00   0.0000000000E+00   0.2429532274E+01   0.5125297112E+00   0.0000000000E+00  -0.1005402382E+00
  -0.3140523202E-02   0.6071163754E-02   0.1429672248E-02   0.1464625240E-03   0.0000000000E+00   0.0000000000E+00   0.2462087095E+01   0.1121666841E+01   0.0000000000E+00  -0.4572568964E+00
  -0.5746774272E-02   0.6441173083E-02   0.1385643248E-02   0.1804204031E-03   0.0000000000E+00   0.0000000000E+00   0.2301866678E+01   0.6499305877E+00   0.0000000000E+00  -0.2557236567E+00
  -0.4303208409E-02   0.5422753867E-02   0.1402110001E-02   0.1629620170E-03   0.0000000000E+00   0.0000000000E+00   0.2508255808E+01   0.7978866658E+00   0.0000000000E+00  -0.2959922583E+00
  -0.4585418161E-02   0.7089853998E-02   0.1411876399E-02   0.1641919480E-03   0.0000000000E+00   0.0000000000E+00   0.2249000458E+01   0.8845165513E+00   0.0000000000E+00  -0.3740522992E+00
  -0.2401655459E-02   0.4032691924E-03   0.1347987061E-02   0.1529529674E-03   0.0000000000E+00   0.0000000000E+00   0.2837034006E+01   0.5678062290E+00   0.0000000000E+00   0.8982909847E+00
  -0.7952640681E-03   0.1973247177E-02   0.1438327792E-02   0.1071557866E-03   0.0000000000E+00   0.0000000000E+00   0.4102191049E+01   0.1537197073E+01   0.0000000000E+00  -0.4550183137E+00
   0.7365982618E-02  -0.1821496957E-04   0.1705059418E-02   0.1904784124E-03   0.0000000000E+00   0.0000000000E+00   0.2164123560E+01   0.4557609836E+00   0.0000000000E+00  -0.8715339359E+00
   0.8204210464E-02  -0.5931044430E-03   0.1735008234E-02   0.2058237590E-03   0.0000000000E+00   0.0000000000E+00   0.1929575807E+01   0.4683142928E+00   0.0000000000E+00  -0.9011152510E+00
   0.8172142976E-02   0.3861964979E-03   0.1709028806E-02   0.2016381369E-03   0.0000000000E+00   0.0000000000E+00   0.2140952155E+01   0.3682298520E+00   0.0000000000E+00  -0.7256554854E+00
   0.4939093420E-02   0.5368718068E-03   0.1636213320E-02   0.1425511388E-03   0.0000000000E+00   0.0000000000E+00   0.3130148886E+01   0.6825495134E+00   0.0000000000E+00  -0.8987159630E+00
   0.5210827999E-02  -0.8884863318E-04   0.1664222409E-02   0.1511569488E-03   0.0000000000E+00   0.0000000000E+00   0.2682235566E+01   0.6516157285E+00   0.0000000000E+00  -0.1142556800E+01
   0.5601527269E-02   0.3676341606E-03   0.1657815749E-02   0.1571012416E-03   0.0000000000E+00   0.0000000000E+00   0.2767697859E+01   0.5860347727E+00   0.0000000000E+00  -0.9257325675E+00
  -0.8451206349E-03   0.3064565539E-02   0.1452026545E-02   0.1087798193E-03   0.0000000000E+00   0.0000000000E+00   0.3475950328E+01   0.1769037906E+01   0.0000000000E+00  -0.6505904937E+00
  -0.1126761765E-02   0.2483844324E-02   0.1437367185E-02   0.1138071840E-03   0.0000000000E+00   0.0000000000E+00   0.3646813996E+01   0.1385351707E+01   0.0000000000E+00  -0.3857042009E+00
  -0.5114649653E-03   0.2553015290E-02   0.1455145125E-02   0.1011754295E-03   0.0000000000E+00   0.0000000000E+00   0.3818930535E+01   0.1881619597E+01   0.0000000000E+00  -0.6619600198E+00
  -0.4149795169E-02  -0.1543590617E-03   0.1295039301E-02   0.1873844603E-03   0.0000000000E+00   0.0000000000E+00   0.2190890020E+01   0.4533205028E+00   0.0000000000E+00   0.9030619824E+00
  -0.3014950270E-02   0.8783197256E-03   0.1347803320E-02   0.1623601416E-03   0.0000000000E+00   0.0000000000E+00   0.2765159254E+01   0.5032154107E+00   0.0000000000E+00   0.7224780151E+00
  -0.2170792456E-02   0.1065801089E-02   0.1374162364E-02   0.1443227096E-03   0.0000000000E+00   0.0000000000E+00   0.3218484312E+01   0.6060936678E+00   0.0000000000E+00   0.6521126345E+00
  -0.5759607125E-02  -0.1154599672E-02   0.1241572615E-02   0.2157697885E-03   0.0000000000E+00   0.0000000000E+00   0.1757733472E+01   0.4456714855E+00   0.0000000000E+00   0.8826559699E+00
   0.1564454491E-01  -0.1000685573E-02   0.1843482411E-02   0.3011892972E-03   0.0000000000E+00   0.0000000000E+00   0.1357810997E+01   0.1950638858E+00   0.0000000000E+00  -0.5662579775E+00
  -0.6413217705E-02  -0.4060746681E-04   0.1259635595E-02   0.2218301542E-03   0.0000000000E+00   0.0000000000E+00   0.1888418910E+01   0.3473682154E+00   0.0000000000E+00   0.7556788918E+00
  -0.2399928457E-01   0.5420374679E-02   0.1115385832E-02   0.3787106793E-03   0.0000000000E+00   0.0000000000E+00   0.1199842901E+01  -0.2155183484E-01   0.0000000000E+00   0.2101965904E+00
  -0.1948032159E-01   0.1396320618E-02   0.1116093212E-02   0.3581104982E-03   0.0000000000E+00   0.0000000000E+00   0.1223048540E+01   0.3953049009E-01   0.0000000000E+00   0.3552305683E+00
  -0.2447291432E-01   0.2161229477E-02   0.1073189381E-02   0.3972938072E-03   0.0000000000E+00   0.0000000000E+00   0.1111334548E+01   0.2377872032E-02   0.0000000000E+00   0.2849532730E+00
  -0.2221593882E-01   0.1490668568E-03   0.1071037079E-02   0.3868581898E-03   0.0000000000E+00   0.0000000000E+00   0.1111477374E+01   0.3065494623E-01   0.0000000000E+00   0.3491089588E+00
  -0.2173855539E-01   0.3408905282E-02   0.1116987210E-02   0.3689682823E-03   0.0000000000E+00   0.0000000000E+00   0.1222735477E+01   0.1660853579E-01   0.0000000000E+00   0.2756311214E+00
   0.1359204134E-01   0.1328183792E-02   0.1775307840E-02   0.2689973819E-03   0.0000000000E+00   0.0000000000E+00   0.1632492259E+01   0.1556980935E+00   0.0000000000E+00  -0.4836564111E+00
   0.1543210102E-01   0.6894715865E-03   0.1811269921E-02   0.2923889645E-03   0.0000000000E+00   0.0000000000E+00   0.1470434189E+01   0.1322850743E+00   0.0000000000E+00  -0.4800141822E+00
   0.1380622512E-01  -0.3611938016E-03   0.1809260219E-02   0.2785773094E-03   0.0000000000E+00   0.0000000000E+00   0.1485176269E+01   0.2074953863E+00   0.0000000000E+00  -0.5863028421E+00
  -0.1297422335E-01   0.1257057100E-02   0.1191170655E-02   0.2957149722E-03   0.0000000000E+00   0.0000000000E+00   0.1484854125E+01   0.1363152704E+00   0.0000000000E+00   0.4470034341E+00
   0.2033382437E-01  -0.8832342389E-02   0.2024087774E-02   0.3634417205E-03   0.0000000000E+00   0.0000000000E+00   0.7730663588E+00   0.2716386466E+00   0.0000000000E+00  -0.5363655404E+00
   0.2510317103E-01   0.6247986804E-02   0.1854178133E-02   0.3586078540E-03   0.0000000000E+00   0.0000000000E+00   0.1269001731E+01  -0.9643336971E-02   0.0000000000E+00  -0.1896449445E+00
   0.2096639664E-01   0.2811686263E-02   0.1847635037E-02   0.3380320331E-03   0.0000000000E+00   0.0000000000E+00   0.1320199172E+01   0.3876577265E-01   0.0000000000E+00  -0.3217603447E+00
   0.2303392673E-01   0.4530269417E-02   0.1850048532E-02   0.3487530568E-03   0.0000000000E+00   0.0000000000E+00   0.1304315455E+01   0.2147569136E-01   0.0000000000E+00  -0.2494799754E+00
   0.2338650640E-01   0.1761648864E-02   0.1888921500E-02   0.3645423040E-03   0.0000000000E+00   0.0000000000E+00   0.1207803905E+01   0.2895774155E-01   0.0000000000E+00  -0.3276834415E+00
   0.2545265232E-01   0.3479692136E-02   0.1889952719E-02   0.3747232055E-03   0.0000000000E+00   0.0000000000E+00   0.1190779226E+01   0.3973891860E-02   0.0000000000E+00  -0.2677837180E+00
  -0.1737345614E-01  -0.1340087871E-03   0.1117454355E-02   0.3451171549E-03   0.0000000000E+00   0.0000000000E+00   0.1235489167E+01   0.9897794568E-01   0.0000000000E+00   0.4316167337E+00
  -0.1492502665E-01   0.5525305633E-03   0.1155714155E-02   0.3187740683E-03   0.0000000000E+00   0.0000000000E+00   0.1345742359E+01   0.1105535451E+00   0.0000000000E+00   0.4465681109E+00
  -0.1703280369E-01   0.2083688487E-02   0.1153441415E-02   0.3325959869E-03   0.0000000000E+00   0.0000000000E+00   0.1325529424E+01   0.5074136025E-01   0.0000000000E+00   0.3513235956E+00
   0.2479715004E-01  -0.9900233997E-02   0.2068878243E-02   0.4080308026E-03   0.0000000000E+00   0.0000000000E+00   0.7491292477E+00   0.2046847750E+00   0.0000000000E+00  -0.4701215255E+00
   0.2229107972E-01  -0.1049312826E-01   0.2063669819E-02   0.3840954376E-03   0.0000000000E+00   0.0000000000E+00   0.7075473159E+00   0.2631124110E+00   0.0000000000E+00  -0.4963324985E+00
   0.2405454123E-01  -0.1245988782E-01   0.2104713529E-02   0.4021192790E-03   0.0000000000E+00   0.0000000000E+00   0.6288239776E+00   0.2451014635E+00   0.0000000000E+00  -0.4537472641E+00
   0.2791380960E-01   0.5267978583E-01   0.1672894502E-02   0.2277468327E-03   0.0000000000E+00   0.0000000000E+00   0.8425115025E+00   0.1341906274E+00   0.0000000000E+00   0.1955492062E+00
   0.4154940350E-01   0.6583505890E-01   0.1742027999E-02   0.2561883993E-03   0.0000000000E+00   0.0000000000E+00   0.7698139280E+00   0.3877749792E-01   0.0000000000E+00   0.1869600441E+00
   0.2232834539E-01   0.6818321020E-01   0.1616427992E-02   0.1788553962E-03   0.0000000000E+00   0.0000000000E+00   0.6782384570E+00   0.7991165907E-01   0.0000000000E+00   0.1160807525E+00
   0.3473350937E-01   0.5925710093E-01   0.1709362167E-02   0.2416480288E-03   0.0000000000E+00   0.0000000000E+00   0.8002909429E+00   0.7943887054E-01   0.0000000000E+00   0.1874241328E+00
   0.3193616426E-01   0.6700385202E-01   0.1676517757E-02   0.2122431168E-03   0.0000000000E+00   0.0000000000E+00   0.7243717663E+00   0.5987206553E-01   0.0000000000E+00   0.1554975782E+00
   0.2511951476E-01   0.6043024074E-01   0.1643098559E-02   0.2020419401E-03   0.0000000000E+00   0.0000000000E+00   0.7613232063E+00   0.1129259423E+00   0.0000000000E+00   0.1550386858E+00
   0.2417658240E-01  -0.1989420174E-01   0.2222068295E-02   0.3986819596E-03   0.0000000000E+00   0.0000000000E+00   0.3483474940E+00   0.2510094819E+00   0.0000000000E+00  -0.3178883550E+00
   0.2291471432E-01  -0.2282810461E-01   0.2264409415E-02   0.3805228895E-03   0.0000000000E+00   0.0000000000E+00   0.2308621359E+00   0.2214762351E+00   0.0000000000E+00  -0.2427272621E+00
   0.2591902587E-01  -0.2259176443E-01   0.2266185470E-02   0.4151515675E-03   0.0000000000E+00   0.0000000000E+00   0.3071355326E+00   0.2271516372E+00   0.0000000000E+00  -0.2788413259E+00
   0.2617226922E-01  -0.1444768594E-01   0.2145338917E-02   0.4230182561E-03   0.0000000000E+00   0.0000000000E+00   0.5767100745E+00   0.2357203067E+00   0.0000000000E+00  -0.4153072326E+00
   0.2525004264E-01  -0.1734078935E-01   0.2185824140E-02   0.4126720542E-03   0.0000000000E+00   0.0000000000E+00   0.4478041146E+00   0.2467202802E+00   0.0000000000E+00  -0.3724434955E+00
   0.2810743332E-01  -0.1676689797E-01   0.2187669923E-02   0.4415180308E-03   0.0000000000E+00   0.0000000000E+00   0.5147420970E+00   0.2188396347E+00   0.0000000000E+00  -0.3754251171E+00
  -0.3049246735E-01   0.2880479081E-02   0.1022490145E-02   0.4410695909E-03   0.0000000000E+00   0.0000000000E+00   0.1018638647E+01  -0.3768075813E-01   0.0000000000E+00   0.2299779568E+00
  -0.3063843132E-01  -0.9308121061E-03   0.9802978762E-03   0.4571467739E-03   0.0000000000E+00   0.0000000000E+00   0.9401589919E+00  -0.3099851089E-02   0.0000000000E+00   0.2817751023E+00
  -0.2786906532E-01  -0.2921398882E-02   0.9809517811E-03   0.4431610779E-03   0.0000000000E+00   0.0000000000E+00   0.9361012259E+00   0.2854537964E-01   0.0000000000E+00   0.3336082145E+00
  -0.2771936615E-01   0.8910160279E-03   0.1026881154E-02   0.4282076729E-03   0.0000000000E+00   0.0000000000E+00   0.1030498569E+01   0.8645355233E-03   0.0000000000E+00   0.2840105940E+00
  -0.1925516338E-01  -0.6711920782E-02   0.9981447245E-03   0.3803790879E-03   0.0000000000E+00   0.0000000000E+00   0.8874595749E+00   0.1941690548E+00   0.0000000000E+00   0.5055991130E+00
  -0.2866800045E-01  -0.1545036911E-01   0.8150068453E-03   0.4734587881E-03   0.0000000000E+00   0.0000000000E+00   0.5845829690E+00   0.1702187603E+00   0.0000000000E+00   0.3637754888E+00
  -0.2532589613E-01  -0.1628962299E-01   0.8183327684E-03   0.4436490099E-03   0.0000000000E+00   0.0000000000E+00   0.5306388143E+00   0.2087393858E+00   0.0000000000E+00   0.3794802795E+00
   0.2971402001E-02   0.3749467976E-02   0.1525149541E-02   0.1008432156E-03   0.0000000000E+00   0.0000000000E+00   0.2978745001E+01   0.2174532357E+01   0.0000000000E+00   0.4936211941E+00
   0.3662271163E-02   0.3056246560E-02   0.1543638033E-02   0.1056070998E-03   0.0000000000E+00   0.0000000000E+00   0.3470032814E+01   0.1885377327E+01   0.0000000000E+00   0.6581003169E+00
   0.2747276364E-02   0.3327431950E-02   0.1522350624E-02   0.9515029013E-04   0.0000000000E+00   0.0000000000E+00   0.3140950413E+01   0.2329606750E+01   0.0000000000E+00   0.4828594783E+00
   0.3092190967E-02   0.2979661897E-02   0.1531074887E-02   0.9637288654E-04   0.0000000000E+00   0.0000000000E+00   0.3447600602E+01   0.2257614029E+01   0.0000000000E+00   0.6338704667E+00
   0.3315859174E-02   0.3401791288E-02   0.1533416384E-02   0.1021591781E-03   0.0000000000E+00   0.0000000000E+00   0.3211600197E+01   0.2050642781E+01   0.0000000000E+00   0.5647667454E+00
   0.3660419094E-02   0.2064198663E-02   0.1555840324E-02   0.1038053927E-03   0.0000000000E+00   0.0000000000E+00   0.4095418205E+01   0.1672364991E+01   0.0000000000E+00   0.5273087506E+00
   0.3346790243E-02   0.2601487794E-02   0.1540008613E-02   0.9824032375E-04   0.0000000000E+00   0.0000000000E+00   0.3757586426E+01   0.2035349878E+01   0.0000000000E+00   0.6875178789E+00
   0.3974236629E-02   0.2518262985E-02   0.1557806359E-02   0.1104777147E-03   0.0000000000E+00   0.0000000000E+00   0.3701010622E+01   0.1520445436E+01   0.0000000000E+00   0.4683912866E+00
   0.2453529424E-02   0.3706569055E-02   0.1515959770E-02   0.9631106460E-04   0.0000000000E+00   0.0000000000E+00   0.2941249607E+01   0.2294660195E+01   0.0000000000E+00   0.3493558208E+00
   0.2229028361E-02   0.3284597452E-02   0.1512785422E-02   0.9068233234E-04   0.0000000000E+00   0.0000000000E+00   0.3114641279E+01   0.2530628589E+01   0.0000000000E+00   0.3343008741E+00
  -0.2926657756E-01   0.2600260486E-01   0.1216262238E-02   0.3251641633E-03   0.0000000000E+00   0.0000000000E+00   0.1163214819E+01   0.5539972689E-01   0.0000000000E+00  -0.1829404555E+00
  -0.2008196646E-01   0.2538331518E-01   0.1308099138E-02   0.2618386803E-03   0.0000000000E+00   0.0000000000E+00   0.1235364104E+01   0.2389639297E+00   0.0000000000E+00  -0.2536502673E+00
  -0.2346704019E-01   0.3413925646E-01   0.1302694411E-02   0.2611162558E-03   0.0000000000E+00   0.0000000000E+00   0.1077435086E+01   0.1955480380E+00   0.0000000000E+00  -0.2472683814E+00
  -0.2467436478E-01   0.2569260420E-01   0.1262087918E-02   0.2931465016E-03   0.0000000000E+00   0.0000000000E+00   0.1201452825E+01   0.1449558053E+00   0.0000000000E+00  -0.2190514954E+00
  -0.2177392889E-01   0.2976150904E-01   0.1305971211E-02   0.2617007388E-03   0.0000000000E+00   0.0000000000E+00   0.1153286650E+01   0.2148742412E+00   0.0000000000E+00  -0.2492775442E+00
  -0.2636344116E-01   0.3006819014E-01   0.1262846044E-02   0.2903987394E-03   0.0000000000E+00   0.0000000000E+00   0.1121719027E+01   0.1279237394E+00   0.0000000000E+00  -0.2171185337E+00
   0.1055265315E-03   0.2446641165E-02   0.1469987441E-02   0.8960156454E-04   0.0000000000E+00   0.0000000000E+00   0.3799501427E+01   0.2423762225E+01   0.0000000000E+00  -0.6740449396E+00
   0.6601060284E-02   0.3513371975E-03   0.1679923864E-02   0.1758372585E-03   0.0000000000E+00   0.0000000000E+00   0.2455563804E+01   0.5073375600E+00   0.0000000000E+00  -0.8555136332E+00
  -0.2100733104E-02   0.1724339184E-02   0.1393855326E-02   0.1386339735E-03   0.0000000000E+00   0.0000000000E+00   0.3389156541E+01   0.7531698704E+00   0.0000000000E+00   0.1889075928E+00
  -0.2293286841E-03   0.2959212870E-02   0.1465669206E-02   0.9822716990E-04   0.0000000000E+00   0.0000000000E+00   0.3486475686E+01   0.2198400587E+01   0.0000000000E+00  -0.6580834484E+00
  -0.4991557250E-02   0.6575223773E-03   0.1301015000E-02   0.1975546433E-03   0.0000000000E+00   0.0000000000E+00   0.2179712384E+01   0.3768721718E+00   0.0000000000E+00   0.7079499966E+00
  -0.4087022999E-02   0.1027331059E-02   0.1328156771E-02   0.1808222853E-03   0.0000000000E+00   0.0000000000E+00   0.2499940152E+01   0.4434762182E+00   0.0000000000E+00   0.6513935078E+00
   0.1237604627E-01   0.2775009024E-03   0.1777723873E-02   0.2592509381E-03   0.0000000000E+00   0.0000000000E+00   0.1646086869E+01   0.2325823752E+00   0.0000000000E+00  -0.5919823489E+00
   0.1182251695E-01   0.1666800322E-02   0.1742722355E-02   0.2460123221E-03   0.0000000000E+00   0.0000000000E+00   0.1803249061E+01   0.1905864676E+00   0.0000000000E+00  -0.4689174853E+00
   0.4899889019E-02   0.3149557744E-02   0.1572918629E-02   0.1281724537E-03   0.0000000000E+00   0.0000000000E+00   0.3301290005E+01   0.1162910964E+01   0.0000000000E+00   0.3921024298E+00
   0.5982925474E-02   0.2322778446E-02   0.1615495714E-02   0.1529323565E-03   0.0000000000E+00   0.0000000000E+00   0.3025594082E+01   0.5857602103E+00   0.0000000000E+00  -0.1578964586E+00
   0.4594721166E-02   0.2566676599E-02   0.1574122146E-02   0.1235182992E-03   0.0000000000E+00   0.0000000000E+00   0.3583170384E+01   0.1135568364E+01   0.0000000000E+00   0.3134506333E+00
   0.5137957388E-02   0.2154277471E-02   0.1597128798E-02   0.1368888814E-03   0.0000000000E+00   0.0000000000E+00   0.3344650566E+01   0.7808854432E+00   0.0000000000E+00  -0.4431446254E-01
   0.5440761575E-02   0.2735806256E-02   0.1593561615E-02   0.1401906860E-03   0.0000000000E+00   0.0000000000E+00   0.3210774126E+01   0.8498424425E+00   0.0000000000E+00   0.1076232083E+00
   0.5656281806E-02   0.1657961332E-02   0.1622573796E-02   0.1506087618E-03   0.0000000000E+00   0.0000000000E+00   0.3092304861E+01   0.5883794708E+00   0.0000000000E+00  -0.3819902256E+00
   0.6334137417E-02   0.9776097043E-03   0.1656726717E-02   0.1677835143E-03   0.0000000000E+00   0.0000000000E+00   0.2665372142E+01   0.4444569143E+00   0.0000000000E+00  -0.6820517216E+00
   0.6658345952E-02   0.1642062420E-02   0.1647213032E-02   0.1697427104E-03   0.0000000000E+00   0.0000000000E+00   0.2737397831E+01   0.4697095720E+00   0.0000000000E+00  -0.4501674156E+00
   0.1911693330E-01   0.1431054527E-02   0.1845086797E-02   0.3267379671E-03   0.0000000000E+00   0.0000000000E+00   0.1347160307E+01   0.8725077491E-01   0.0000000000E+00  -0.3951151984E+00
   0.2113402017E-01   0.4361118745E-03   0.1882502172E-02   0.3498918932E-03   0.0000000000E+00   0.0000000000E+00   0.1223003942E+01   0.7155944969E-01   0.0000000000E+00  -0.3994500237E+00
  -0.7442209605E-02   0.3269413165E-02   0.1309554355E-02   0.2192863349E-03   0.0000000000E+00   0.0000000000E+00   0.2093033969E+01   0.2422728945E+00   0.0000000000E+00   0.2759560973E+00
  -0.7607025227E-02   0.1855996395E-02   0.1280596343E-02   0.2292283646E-03   0.0000000000E+00   0.0000000000E+00   0.1947654160E+01   0.2411021865E+00   0.0000000000E+00   0.4701203777E+00
  -0.6355661268E-02   0.1141427696E-02   0.1287537322E-02   0.2156130797E-03   0.0000000000E+00   0.0000000000E+00   0.2071317902E+01   0.2843748862E+00   0.0000000000E+00   0.5563211438E+00
  -0.6187671452E-02   0.2554545869E-02   0.1319669528E-02   0.2053724490E-03   0.0000000000E+00   0.0000000000E+00   0.2242919393E+01   0.2846222226E+00   0.0000000000E+00   0.3684422622E+00
  -0.1521121551E-01   0.1152863119E-01   0.1287312892E-02   0.2680648891E-03   0.0000000000E+00   0.0000000000E+00   0.1588543212E+01   0.1778397139E+00   0.0000000000E+00  -0.1022974739E+00
  -0.1803845567E-01   0.6703359243E-02   0.1200156028E-02   0.3195653526E-03   0.0000000000E+00   0.0000000000E+00   0.1424783308E+01   0.2958072429E-01   0.0000000000E+00   0.1630484000E+00
  -0.1662330366E-01   0.9115670778E-02   0.1245267339E-02   0.2934904481E-03   0.0000000000E+00   0.0000000000E+00   0.1512199795E+01   0.9091414490E-01   0.0000000000E+00   0.4281756723E-01
  -0.1544629070E-01   0.6768281946E-02   0.1235169996E-02   0.2937385861E-03   0.0000000000E+00   0.0000000000E+00   0.1536398963E+01   0.7042331593E-01   0.0000000000E+00   0.1334653831E+00
  -0.1402970214E-01   0.9179841033E-02   0.1281717861E-02   0.2669117027E-03   0.0000000000E+00   0.0000000000E+00   0.1662130189E+01   0.1722743582E+00   0.0000000000E+00  -0.2379311122E-01
   0.2109187713E-01  -0.4258627831E-02   0.1953276428E-02   0.3646725689E-03   0.0000000000E+00   0.0000000000E+00   0.1017601143E+01   0.1634272497E+00   0.0000000000E+00  -0.5075302832E+00
   0.1652652782E-01   0.4083267324E-02   0.1773174021E-02   0.2877853336E-03   0.0000000000E+00   0.0000000000E+00   0.1577437842E+01   0.8467455682E-01   0.0000000000E+00  -0.2766295744E+00
   0.1874774334E-01   0.3448299960E-02   0.1811685142E-02   0.3137317398E-03   0.0000000000E+00   0.0000000000E+00   0.1432757795E+01   0.5776126015E-01   0.0000000000E+00  -0.3004876863E+00
   0.1689710631E-01   0.2066882514E-02   0.1807965106E-02   0.3016520745E-03   0.0000000000E+00   0.0000000000E+00   0.1463695187E+01   0.9960246538E-01   0.0000000000E+00  -0.3899502302E+00
  -0.1630903214E-01   0.4736750217E-02   0.1198312358E-02   0.3128655466E-03   0.0000000000E+00   0.0000000000E+00   0.1460349281E+01   0.6298826312E-01   0.0000000000E+00   0.2446361817E+00
  -0.2110149077E-02   0.2633104805E-02   0.1413160173E-02   0.1339817049E-03   0.0000000000E+00   0.0000000000E+00   0.3402459322E+01   0.8720277228E+00   0.0000000000E+00  -0.1482846975E+00
  -0.1826606910E-02   0.3211578094E-02   0.1429720560E-02   0.1267066436E-03   0.0000000000E+00   0.0000000000E+00   0.3264641229E+01   0.1286602248E+01   0.0000000000E+00  -0.4493162751E+00
   0.2326619749E-01  -0.5627806548E-02   0.1992752192E-02   0.3877112017E-03   0.0000000000E+00   0.0000000000E+00   0.9388696502E+00   0.1640679533E+00   0.0000000000E+00  -0.4832075789E+00
   0.2284097864E-01  -0.8238856078E-02   0.2030378241E-02   0.3879691024E-03   0.0000000000E+00   0.0000000000E+00   0.8176438419E+00   0.2038847456E+00   0.0000000000E+00  -0.4971428213E+00
   0.2522360922E-01  -0.7288598398E-02   0.2032490620E-02   0.4083589322E-03   0.0000000000E+00   0.0000000000E+00   0.8491141665E+00   0.1559200382E+00   0.0000000000E+00  -0.4565047845E+00
   0.2418450219E-01   0.2383089620E-01   0.1709535293E-02   0.2740193031E-03   0.0000000000E+00   0.0000000000E+00   0.1260120166E+01   0.1986097585E+00   0.0000000000E+00   0.2361140554E+00
   0.1627573119E-01   0.2316182834E-01   0.1630118388E-02   0.2220886443E-03   0.0000000000E+00   0.0000000000E+00   0.1281628140E+01   0.4215803036E+00   0.0000000000E+00   0.2711777736E+00
   0.2035298419E-01   0.1737028902E-01   0.1698583690E-02   0.2648754153E-03   0.0000000000E+00   0.0000000000E+00   0.1431400981E+01   0.2306770971E+00   0.0000000000E+00   0.2142742052E+00
   0.2022966536E-01   0.2349531084E-01   0.1669375065E-02   0.2470034378E-03   0.0000000000E+00   0.0000000000E+00   0.1281877357E+01   0.3147895841E+00   0.0000000000E+00   0.2628144019E+00
   0.1831099029E-01   0.2026316583E-01   0.1660984093E-02   0.2405891261E-03   0.0000000000E+00   0.0000000000E+00   0.1358674606E+01   0.3336392469E+00   0.0000000000E+00   0.2488417520E+00
   0.2226824092E-01   0.2060088199E-01   0.1703558124E-02   0.2697376872E-03   0.0000000000E+00   0.0000000000E+00   0.1343993290E+01   0.2116324351E+00   0.0000000000E+00   0.2240791007E+00
   0.2753340815E-01  -0.8980586336E-02   0.2072837052E-02   0.4312403940E-03   0.0000000000E+00   0.0000000000E+00   0.7863673679E+00   0.1569279169E+00   0.0000000000E+00  -0.4300896558E+00
   0.2691630361E-01  -0.1188783981E-01   0.2110929213E-02   0.4291219908E-03   0.0000000000E+00   0.0000000000E+00   0.6762941923E+00   0.1907533596E+00   0.0000000000E+00  -0.4294262338E+00
   0.2965140675E-01  -0.1096846158E-01   0.2113733045E-02   0.4520621242E-03   0.0000000000E+00   0.0000000000E+00   0.7136296630E+00   0.1495630773E+00   0.0000000000E+00  -0.4008717307E+00
  -0.3622573825E-01   0.8142683972E-02   0.1018495949E-02   0.4595186022E-03   0.0000000000E+00   0.0000000000E+00   0.1005397777E+01  -0.7976766126E-01   0.0000000000E+00   0.1249210413E+00
  -0.3677448651E-01   0.3628557156E-02   0.9728742935E-03   0.4830936265E-03   0.0000000000E+00   0.0000000000E+00   0.9375246965E+00  -0.5876408043E-01   0.0000000000E+00   0.1809760440E+00
  -0.3391034015E-01   0.9971709780E-03   0.9723841544E-03   0.4735854430E-03   0.0000000000E+00   0.0000000000E+00   0.9377730097E+00  -0.3774030002E-01   0.0000000000E+00   0.2292822400E+00
  -0.3335794891E-01   0.5512045671E-02   0.1021645085E-02   0.4507582407E-03   0.0000000000E+00   0.0000000000E+00   0.1019573633E+01  -0.5366506856E-01   0.0000000000E+00   0.1731484336E+00
  -0.1958881889E-01  -0.1320704561E-02   0.1077156413E-02   0.3696093595E-03   0.0000000000E+00   0.0000000000E+00   0.1117858940E+01   0.8537407717E-01   0.0000000000E+00   0.4236210536E+00
   0.1700859905E+00   0.1146207296E-02   0.2839246512E-02   0.1039148455E-02   0.0000000000E+00   0.0000000000E+00   0.5303037558E+00  -0.3689652522E-01   0.0000000000E+00   0.2893986682E-02
   0.1702021652E+00  -0.1840263736E-01   0.2868681223E-02   0.1082597845E-02   0.0000000000E+00   0.0000000000E+00   0.4333315813E+00  -0.3510896524E-01   0.0000000000E+00  -0.6050262590E-02
   0.1864493950E+00  -0.8772907423E-02   0.2926976977E-02   0.1080049557E-02   0.0000000000E+00   0.0000000000E+00   0.4753026996E+00  -0.3050044346E-01   0.0000000000E+00  -0.5735195603E-03
   0.1701441169E+00  -0.8627244694E-02   0.2853995918E-02   0.1061843286E-02   0.0000000000E+00   0.0000000000E+00   0.4814005921E+00  -0.3692616851E-01   0.0000000000E+00  -0.1560131946E-02
   0.1783241511E+00  -0.1358628533E-01   0.2896208094E-02   0.1082810772E-02   0.0000000000E+00   0.0000000000E+00   0.4545491331E+00  -0.3227363374E-01   0.0000000000E+00  -0.2777177571E-02
   0.1782696857E+00  -0.3811409869E-02   0.2885104677E-02   0.1061538991E-02   0.0000000000E+00   0.0000000000E+00   0.5030559070E+00  -0.3316934956E-01   0.0000000000E+00   0.6195804339E-03
  -0.2767262342E-01  -0.6114513476E-02   0.9431008799E-03   0.4509204544E-03   0.0000000000E+00   0.0000000000E+00   0.8594802319E+00   0.8337589809E-01   0.0000000000E+00   0.3736334697E+00
  -0.7023373582E-01  -0.7939855999E-01   0.1199956777E-03   0.8009424131E-03   0.0000000000E+00   0.0000000000E+00   0.1010895688E-01   0.1721882947E-01   0.0000000000E+00   0.2401935049E-01
  -0.6003721008E-01  -0.9928327410E-01  -0.3721137931E-04   0.7167269025E-03   0.0000000000E+00   0.0000000000E+00  -0.1459055836E+00  -0.1824723644E-02   0.0000000000E+00  -0.2987594746E-02
  -0.5006478697E-01  -0.8145899187E-01   0.1012388250E-03   0.6423159308E-03   0.0000000000E+00   0.0000000000E+00  -0.3167840289E-01   0.1644157531E-01   0.0000000000E+00  -0.1609979814E-01
  -0.6513236262E-01  -0.8933868643E-01   0.4450428311E-04   0.7610654690E-03   0.0000000000E+00   0.0000000000E+00  -0.6754127745E-01   0.7781004580E-02   0.0000000000E+00   0.7045000737E-02
  -0.5505331702E-01  -0.9036968218E-01   0.2969707504E-04   0.6809724194E-03   0.0000000000E+00   0.0000000000E+00  -0.8475782984E-01   0.7101300804E-02   0.0000000000E+00  -0.8070600006E-02
  -0.6014807070E-01  -0.8042474243E-01   0.1118078985E-03   0.7256626716E-03   0.0000000000E+00   0.0000000000E+00  -0.1456549057E-01   0.1557661385E-01   0.0000000000E+00   0.4022663617E-02
   0.2088622615E-01  -0.3835873332E-01   0.2472406752E-02   0.3427934784E-03   0.0000000000E+00   0.0000000000E+00   0.4380385465E-01   0.3690298543E-01   0.0000000000E+00  -0.2205857804E-01
  -0.1671097109E-01   0.4001740261E-01   0.1369883708E-02   0.2180029142E-03   0.0000000000E+00   0.0000000000E+00   0.9617185770E+00   0.2638275286E+00   0.0000000000E+00  -0.2016195848E+00
  -0.1396511594E-01   0.3215045165E-01   0.1381120564E-02   0.2163244464E-03   0.0000000000E+00   0.0000000000E+00   0.1073095578E+01   0.3539156480E+00   0.0000000000E+00  -0.2223026445E+00
  -0.7582267268E-02   0.3902994198E-01   0.1436586972E-02   0.1917789757E-03   0.0000000000E+00   0.0000000000E+00   0.9334916244E+00   0.3415859912E+00   0.0000000000E+00  -0.1181591605E+00
  -0.1533809059E-01   0.3608442551E-01   0.1375454107E-02   0.2176621126E-03   0.0000000000E+00   0.0000000000E+00   0.1012330469E+01   0.2995954469E+00   0.0000000000E+00  -0.2066562303E+00
  -0.1077193139E-01   0.3558803062E-01   0.1410613513E-02   0.2018855243E-03   0.0000000000E+00   0.0000000000E+00   0.1001937757E+01   0.3565537992E+00   0.0000000000E+00  -0.1672949488E+00
  -0.1214607349E-01   0.3952167493E-01   0.1403781513E-02   0.2028936325E-03   0.0000000000E+00   0.0000000000E+00   0.9498790288E+00   0.3043006878E+00   0.0000000000E+00  -0.1635399932E+00
  -0.6085698782E-02   0.1227235484E-01   0.1416396058E-02   0.1790762368E-03   0.0000000000E+00   0.0000000000E+00   0.1728706154E+01   0.7959241646E+00   0.0000000000E+00  -0.3453725622E+00
  -0.2785339535E-02   0.9220757723E-02   0.1448963715E-02   0.1495473230E-03   0.0000000000E+00   0.0000000000E+00   0.1934661392E+01   0.1150110845E+01   0.0000000000E+00  -0.3547177582E+00
  -0.6055285999E-02   0.1018852255E-01   0.1407958721E-02   0.1785715538E-03   0.0000000000E+00   0.0000000000E+00   0.1934240961E+01   0.7889308948E+00   0.0000000000E+00  -0.3642862447E+00
  -0.4405139779E-02   0.8661252980E-02   0.1424208911E-02   0.1623365798E-03   0.0000000000E+00   0.0000000000E+00   0.2051378283E+01   0.9349587620E+00   0.0000000000E+00  -0.3666357251E+00
  -0.4436029885E-02   0.1074717495E-01   0.1432169395E-02   0.1649309496E-03   0.0000000000E+00   0.0000000000E+00   0.1812269147E+01   0.9546252604E+00   0.0000000000E+00  -0.3355885193E+00
   0.2468633692E-02   0.4747866865E-02   0.1514403492E-02   0.1055903053E-03   0.0000000000E+00   0.0000000000E+00   0.2561829623E+01   0.2027624890E+01   0.0000000000E+00   0.2488749461E+00
   0.2202541945E-02   0.4206803152E-02   0.1510983420E-02   0.9971902161E-04   0.0000000000E+00   0.0000000000E+00   0.2700598028E+01   0.2192732476E+01   0.0000000000E+00   0.1970695671E+00
   0.2719572502E-02   0.4248304094E-02   0.1519331232E-02   0.1028532041E-03   0.0000000000E+00   0.0000000000E+00   0.2783382529E+01   0.2114086524E+01   0.0000000000E+00   0.3738213336E+00
  -0.1206536807E-02   0.4608306056E-02   0.1455801743E-02   0.1193428859E-03   0.0000000000E+00   0.0000000000E+00   0.2782056623E+01   0.1640085327E+01   0.0000000000E+00  -0.5339670316E+00
  -0.5535941010E-03   0.4255017157E-02   0.1466121399E-02   0.1101660374E-03   0.0000000000E+00   0.0000000000E+00   0.2833353221E+01   0.1914779312E+01   0.0000000000E+00  -0.5026883380E+00
  -0.1025242783E-02   0.3836374846E-02   0.1454499967E-02   0.1140005159E-03   0.0000000000E+00   0.0000000000E+00   0.3134362318E+01   0.1693073402E+01   0.0000000000E+00  -0.5923991452E+00
  -0.3712654139E-03   0.3481629309E-02   0.1465854276E-02   0.1033670287E-03   0.0000000000E+00   0.0000000000E+00   0.3162603466E+01   0.1989947720E+01   0.0000000000E+00  -0.5445726496E+00
   0.3943159194E-02   0.3761760145E-02   0.1544276204E-02   0.1125519155E-03   0.0000000000E+00   0.0000000000E+00   0.3127531907E+01   0.1705211379E+01   0.0000000000E+00   0.5759701321E+00
   0.4280971701E-02   0.3102638336E-02   0.1558170061E-02   0.1166258460E-03   0.0000000000E+00   0.0000000000E+00   0.3395544415E+01   0.1538561230E+01   0.0000000000E+00   0.5464195492E+00
   0.4560394247E-02   0.3806758489E-02   0.1557342507E-02   0.1221772290E-03   0.0000000000E+00   0.0000000000E+00   0.3098248057E+01   0.1470139238E+01   0.0000000000E+00   0.5167922405E+00
   0.1260153157E-01   0.4660231919E-02   0.1705438369E-02   0.2396920886E-03   0.0000000000E+00   0.0000000000E+00   0.1903569532E+01   0.1875688597E+00   0.0000000000E+00  -0.1770827154E+00
   0.1309576694E-01   0.2994632472E-02   0.1739353538E-02   0.2547694718E-03   0.0000000000E+00   0.0000000000E+00   0.1771736603E+01   0.1621021124E+00   0.0000000000E+00  -0.3478283025E+00
   0.1505813287E-01   0.2706218379E-02   0.1773089269E-02   0.2788841787E-03   0.0000000000E+00   0.0000000000E+00   0.1622729200E+01   0.1321762661E+00   0.0000000000E+00  -0.3682674053E+00
   0.1456529072E-01   0.4372645567E-02   0.1740567219E-02   0.2646347768E-03   0.0000000000E+00   0.0000000000E+00   0.1718357559E+01   0.1274774284E+00   0.0000000000E+00  -0.2326877442E+00
   0.8962624864E-02   0.5105957340E-02   0.1634002824E-02   0.1884158198E-03   0.0000000000E+00   0.0000000000E+00   0.2355121459E+01   0.4728836980E+00   0.0000000000E+00   0.9564766398E-01
   0.8344476868E-02   0.3991311042E-02   0.1638118938E-02   0.1845137219E-03   0.0000000000E+00   0.0000000000E+00   0.2487541412E+01   0.4672851251E+00   0.0000000000E+00  -0.2574078800E-01
   0.9503961512E-02   0.3554293557E-02   0.1668223152E-02   0.2043281172E-03   0.0000000000E+00   0.0000000000E+00   0.2220464782E+01   0.3232763124E+00   0.0000000000E+00  -0.2002139179E+00
   0.2426711830E-03   0.3379130261E-02   0.1477641583E-02   0.9566801095E-04   0.0000000000E+00   0.0000000000E+00   0.3126365567E+01   0.2295251933E+01   0.0000000000E+00  -0.4808134099E+00
  -0.8690104715E-02   0.6078110121E-02   0.1329340185E-02   0.2208203514E-03   0.0000000000E+00   0.0000000000E+00   0.2025116171E+01   0.2975319314E+00   0.0000000000E+00  -0.8127828090E-02
  -0.9565786213E-02   0.4649790425E-02   0.1294977287E-02   0.2393163255E-03   0.0000000000E+00   0.0000000000E+00   0.1906985549E+01   0.2093618479E+00   0.0000000000E+00   0.1774384172E+00
  -0.8943625076E-02   0.3246096327E-02   0.1283298924E-02   0.2392035866E-03   0.0000000000E+00   0.0000000000E+00   0.1900872057E+01   0.1774069424E+00   0.0000000000E+00   0.3081131367E+00
  -0.8064712030E-02   0.4673624475E-02   0.1320892380E-02   0.2199160554E-03   0.0000000000E+00   0.0000000000E+00   0.2076584907E+01   0.2845848136E+00   0.0000000000E+00   0.1149516962E+00
   0.1498620255E-01   0.7771929617E-02   0.1703313047E-02   0.2517028572E-03   0.0000000000E+00   0.0000000000E+00   0.1766301965E+01   0.1918060460E+00   0.0000000000E+00   0.3087694044E-02
   0.1973699646E-01   0.7531945447E-02   0.1773413862E-02   0.3027178771E-03   0.0000000000E+00   0.0000000000E+00   0.1498018374E+01   0.5625975028E-01   0.0000000000E+00  -0.1145032269E+00
   0.1575519830E-01   0.5927570903E-02   0.1737076201E-02   0.2697164126E-03   0.0000000000E+00   0.0000000000E+00   0.1673120464E+01   0.1283098935E+00   0.0000000000E+00  -0.1502168606E+00
   0.1813077643E-01   0.5807902115E-02   0.1772307731E-02   0.2955472151E-03   0.0000000000E+00   0.0000000000E+00   0.1552034220E+01   0.8187708667E-01   0.0000000000E+00  -0.1849115381E+00
   0.1736266278E-01   0.7652706232E-02   0.1739426681E-02   0.2779790621E-03   0.0000000000E+00   0.0000000000E+00   0.1612299933E+01   0.1161302740E+00   0.0000000000E+00  -0.6490957839E-01
  -0.2510852925E-01   0.1819657685E-01   0.1216052146E-02   0.3261041539E-03   0.0000000000E+00   0.0000000000E+00   0.1276477911E+01   0.4495330619E-01   0.0000000000E+00  -0.1120953263E+00
  -0.2151487310E-01   0.1176066937E-01   0.1208287595E-02   0.3259336655E-03   0.0000000000E+00   0.0000000000E+00   0.1364676940E+01   0.2639736075E-01   0.0000000000E+00   0.7787937875E-02
  -0.1733023546E-01   0.1764727446E-01   0.1303221439E-02   0.2637828618E-03   0.0000000000E+00   0.0000000000E+00   0.1428196899E+01   0.2361627419E+00   0.0000000000E+00  -0.2205573257E+00
  -0.2331026008E-01   0.1497856687E-01   0.1213610918E-02   0.3259626701E-03   0.0000000000E+00   0.0000000000E+00   0.1332855382E+01   0.4504819521E-01   0.0000000000E+00  -0.6072422285E-01
  -0.1941989471E-01   0.1470249692E-01   0.1258413189E-02   0.2933832204E-03   0.0000000000E+00   0.0000000000E+00   0.1405063059E+01   0.1179866245E+00   0.0000000000E+00  -0.1012671421E+00
  -0.2122003632E-01   0.1792226946E-01   0.1258983778E-02   0.2952872614E-03   0.0000000000E+00   0.0000000000E+00   0.1343442018E+01   0.1331492213E+00   0.0000000000E+00  -0.1607527279E+00
  -0.5198236362E-02   0.3307443544E-02   0.1353442858E-02   0.1858924138E-03   0.0000000000E+00   0.0000000000E+00   0.2446561267E+01   0.4238590847E+00   0.0000000000E+00   0.1560084532E+00
  -0.4139494603E-02   0.4069268534E-02   0.1388479967E-02   0.1648485836E-03   0.0000000000E+00   0.0000000000E+00   0.2674019539E+01   0.6311679324E+00   0.0000000000E+00  -0.1262545513E+00
  -0.2971408616E-02   0.4713673824E-02   0.1421442994E-02   0.1443445043E-03   0.0000000000E+00   0.0000000000E+00   0.2778461449E+01   0.1058935139E+01   0.0000000000E+00  -0.4103982334E+00
  -0.2004441792E-02   0.3980907722E-02   0.1434481248E-02   0.1294474316E-03   0.0000000000E+00   0.0000000000E+00   0.2987200189E+01   0.1262811284E+01   0.0000000000E+00  -0.4350730154E+00
  -0.2174008182E-02   0.5340302263E-02   0.1442258698E-02   0.1334700627E-03   0.0000000000E+00   0.0000000000E+00   0.2584095519E+01   0.1348866596E+01   0.0000000000E+00  -0.4777147175E+00
   0.2355287454E-01  -0.6147883573E-03   0.1922535242E-02   0.3755393227E-03   0.0000000000E+00   0.0000000000E+00   0.1130887912E+01   0.7002327296E-01   0.0000000000E+00  -0.3953252679E+00
   0.2347912417E-01  -0.3309615642E-02   0.1960005275E-02   0.3838164375E-03   0.0000000000E+00   0.0000000000E+00   0.1028871952E+01   0.1026282769E+00   0.0000000000E+00  -0.4438259082E+00
   0.2572717598E-01  -0.1983659496E-02   0.1961990178E-02   0.3988860042E-03   0.0000000000E+00   0.0000000000E+00   0.1031606781E+01   0.6307844802E-01   0.0000000000E+00  -0.3883082247E+00
   0.2333168206E-01   0.1179808157E-01   0.1776809664E-02   0.3151275719E-03   0.0000000000E+00   0.0000000000E+00   0.1400435452E+01   0.4714246378E-01   0.0000000000E+00   0.7790211747E-02
   0.1731446611E-01   0.1195958545E-01   0.1696872909E-02   0.2573422514E-03   0.0000000000E+00   0.0000000000E+00   0.1617376832E+01   0.2244216568E+00   0.0000000000E+00   0.1427272996E+00
   0.2032395048E-01   0.1187944646E-01   0.1737717181E-02   0.2868478576E-03   0.0000000000E+00   0.0000000000E+00   0.1496725689E+01   0.1304360071E+00   0.0000000000E+00   0.6877478178E-01
   0.1852403457E-01   0.9745175404E-02   0.1733447065E-02   0.2794399945E-03   0.0000000000E+00   0.0000000000E+00   0.1559926403E+01   0.1283683493E+00   0.0000000000E+00   0.4796903420E-02
   0.2153346459E-01   0.9665220088E-02   0.1774237990E-02   0.3091292878E-03   0.0000000000E+00   0.0000000000E+00   0.1459978283E+01   0.6020742559E-01   0.0000000000E+00  -0.4613441469E-01
  -0.2275580618E-01   0.8590810044E-02   0.1163109323E-02   0.3526099438E-03   0.0000000000E+00   0.0000000000E+00   0.1281765700E+01  -0.4176334935E-02   0.0000000000E+00   0.1186435589E+00
  -0.2102026889E-01   0.6062762156E-02   0.1156373110E-02   0.3500332061E-03   0.0000000000E+00   0.0000000000E+00   0.1294108749E+01  -0.1548735017E-02   0.0000000000E+00   0.1908202053E+00
  -0.1977525557E-01   0.9232145608E-02   0.1205631535E-02   0.3228810277E-03   0.0000000000E+00   0.0000000000E+00   0.1408947111E+01   0.3975224973E-01   0.0000000000E+00   0.7480591413E-01
  -0.1875842022E-01   0.4050487310E-02   0.1159093978E-02   0.3394853601E-03   0.0000000000E+00   0.0000000000E+00   0.1324149340E+01   0.3153453384E-01   0.0000000000E+00   0.2691395695E+00
   0.3313715888E-01  -0.6818584425E-02   0.2083790875E-02   0.4716932045E-03   0.0000000000E+00   0.0000000000E+00   0.8221963087E+00   0.6889729425E-01   0.0000000000E+00  -0.3479703348E+00
   0.3274026948E-01  -0.9994071691E-02   0.2120189983E-02   0.4755829087E-03   0.0000000000E+00   0.0000000000E+00   0.7415079714E+00   0.1002660982E+00   0.0000000000E+00  -0.3636066992E+00
   0.3560450196E-01  -0.8749715872E-02   0.2123924761E-02   0.4948266982E-03   0.0000000000E+00   0.0000000000E+00   0.7595311468E+00   0.6646942961E-01   0.0000000000E+00  -0.3291958700E+00
   0.4157440794E-01  -0.9057922673E-02   0.2166916237E-02   0.5382342166E-03   0.0000000000E+00   0.0000000000E+00   0.7309120177E+00   0.2949865314E-01   0.0000000000E+00  -0.2756778684E+00
   0.4057337809E-01  -0.1638070114E-01   0.2240505992E-02   0.5452037572E-03   0.0000000000E+00   0.0000000000E+00   0.5960757983E+00   0.9842496786E-01   0.0000000000E+00  -0.2955114260E+00
   0.3838934850E-01  -0.1049096751E-01   0.2161958296E-02   0.5190701899E-03   0.0000000000E+00   0.0000000000E+00   0.7162630191E+00   0.6770255946E-01   0.0000000000E+00  -0.3092924641E+00
   0.3789099340E-01  -0.1415289648E-01   0.2200913000E-02   0.5220157163E-03   0.0000000000E+00   0.0000000000E+00   0.6377984966E+00   0.9681701614E-01   0.0000000000E+00  -0.3163499158E+00
   0.4107300391E-01  -0.1271820209E-01   0.2202822009E-02   0.5428293076E-03   0.0000000000E+00   0.0000000000E+00   0.6636061132E+00   0.6532300339E-01   0.0000000000E+00  -0.2887959574E+00
  -0.1666122595E+00   0.1008748918E-02   0.1628925037E-03   0.1038760619E-02   0.0000000000E+00   0.0000000000E+00   0.5298014497E+00  -0.3716148347E-01   0.0000000000E+00  -0.2874065959E-02
  -0.1661863835E+00   0.2065205236E-01   0.1951694680E-03   0.9871966563E-03   0.0000000000E+00   0.0000000000E+00   0.6292863673E+00  -0.3333874825E-01   0.0000000000E+00  -0.1070518184E-01
  -0.1831346940E+00   0.1099771797E-01   0.8950702068E-04   0.1033792969E-02   0.0000000000E+00   0.0000000000E+00   0.5751508475E+00  -0.2878994229E-01   0.0000000000E+00  -0.3607876550E-02
  -0.1663994789E+00   0.1083127946E-01   0.1788730618E-03   0.1013857088E-02   0.0000000000E+00   0.0000000000E+00   0.5790439432E+00  -0.3625708957E-01   0.0000000000E+00  -0.6998628508E-02
  -0.1746625569E+00   0.1582703228E-01   0.1403131109E-03   0.1012642380E-02   0.0000000000E+00   0.0000000000E+00   0.6027140333E+00  -0.3042752481E-01   0.0000000000E+00  -0.6542164999E-02
  -0.1748717802E+00   0.6004855674E-02   0.1279037957E-03   0.1037899114E-02   0.0000000000E+00   0.0000000000E+00   0.5524784715E+00  -0.3248918035E-01   0.0000000000E+00  -0.3726422136E-02
   0.1865351740E+00  -0.2850377635E-01   0.2941915951E-02   0.1118269946E-02   0.0000000000E+00   0.0000000000E+00   0.3786801786E+00  -0.2692638584E-01   0.0000000000E+00  -0.4815880962E-02
   0.2030000030E+00  -0.1889352782E-01   0.3000000000E-02   0.1106471783E-02   0.0000000000E+00   0.0000000000E+00   0.4236235369E+00  -0.2729245218E-01   0.0000000000E+00  -0.4392900456E-04
   0.1864923125E+00  -0.1863732624E-01   0.2934474543E-02   0.1100174457E-02   0.0000000000E+00   0.0000000000E+00   0.4265602559E+00  -0.2960533754E-01   0.0000000000E+00  -0.2743780471E-02
   0.1947658593E+00  -0.2369704985E-01   0.2969228327E-02   0.1113972154E-02   0.0000000000E+00   0.0000000000E+00   0.4013978286E+00  -0.2658631108E-01   0.0000000000E+00  -0.1881569530E-02
   0.1947266400E+00  -0.1383140448E-01   0.2965428999E-02   0.1095073821E-02   0.0000000000E+00   0.0000000000E+00   0.4496345304E+00  -0.2835395056E-01   0.0000000000E+00  -0.8270553628E-03
  -0.3606134021E-01  -0.1341215017E-01   0.8010629858E-03   0.5295494305E-03   0.0000000000E+00   0.0000000000E+00   0.6503493509E+00   0.8463338833E-01   0.0000000000E+00   0.3056998786E+00
  -0.3248676002E-01  -0.1469060649E-01   0.8055521757E-03   0.5042016070E-03   0.0000000000E+00   0.0000000000E+00   0.6228538092E+00   0.1215259150E+00   0.0000000000E+00   0.3361267220E+00
   0.2037311220E-01  -0.4673174223E-01   0.2567677399E-02   0.3355497710E-03   0.0000000000E+00   0.0000000000E+00   0.1664382148E-01  -0.2641204344E-02   0.0000000000E+00   0.1986496598E-01
   0.1561259745E-01  -0.4559766420E-01   0.2553620249E-02   0.2820202006E-03   0.0000000000E+00   0.0000000000E+00   0.9194450904E-02  -0.5384743529E-01   0.0000000000E+00   0.2529381061E-01
   0.1858155542E-01  -0.4232000427E-01   0.2517960217E-02   0.3153620268E-03   0.0000000000E+00   0.0000000000E+00   0.1887886838E-01  -0.4153856968E-02   0.0000000000E+00   0.9759050045E-02
   0.1382019795E-01  -0.4118824675E-01   0.2503060346E-02   0.2595156545E-03   0.0000000000E+00   0.0000000000E+00   0.1000935518E-01  -0.5750477569E-01   0.0000000000E+00   0.1393174087E-01
   0.4834359244E-01  -0.6026482630E-01   0.2713409345E-02   0.6085778010E-03   0.0000000000E+00   0.0000000000E+00   0.7548444867E-01   0.6766312746E-01   0.0000000000E+00  -0.2334072226E-01
   0.4754326602E-01  -0.7219447646E-01   0.2819744120E-02   0.5971520372E-03   0.0000000000E+00   0.0000000000E+00   0.8705462446E-02   0.3382241583E-01   0.0000000000E+00   0.1457319615E-01
   0.6231545467E-01  -0.6788874139E-01   0.2787096370E-02   0.7221130138E-03   0.0000000000E+00   0.0000000000E+00   0.7121542128E-01   0.4550028154E-01   0.0000000000E+00  -0.3219375871E-01
   0.4794394420E-01  -0.6622970895E-01   0.2767091703E-02   0.6028036540E-03   0.0000000000E+00   0.0000000000E+00   0.4124530772E-01   0.4801207386E-01   0.0000000000E+00  -0.1947631923E-02
   0.5492811708E-01  -0.7003937020E-01   0.2802178877E-02   0.6618712970E-03   0.0000000000E+00   0.0000000000E+00   0.3737441772E-01   0.3930197006E-01   0.0000000000E+00  -0.8439943958E-02
   0.5533037641E-01  -0.6407513343E-01   0.2751107612E-02   0.6669995696E-03   0.0000000000E+00   0.0000000000E+00   0.7805388874E-01   0.6008094210E-01   0.0000000000E+00  -0.3104690885E-01
  -0.3807761232E-01  -0.3212068145E-01   0.5793339765E-03   0.5558365456E-03   0.0000000000E+00   0.0000000000E+00   0.3054776954E+00   0.1516145678E+00   0.0000000000E+00   0.1968726136E+00
  -0.3536479978E-01  -0.2863034858E-01   0.6259078210E-03   0.5330381173E-03   0.0000000000E+00   0.0000000000E+00   0.3360942202E+00   0.1596353516E+00   0.0000000000E+00   0.2257421589E+00
  -0.3362382680E-01  -0.3252224349E-01   0.5838934961E-03   0.5155084146E-03   0.0000000000E+00   0.0000000000E+00   0.2581824481E+00   0.1613924763E+00   0.0000000000E+00   0.1812753098E+00
  -0.2245446209E-01  -0.2917664944E-01   0.6420192099E-03   0.4028372616E-03   0.0000000000E+00   0.0000000000E+00   0.1707812452E+00   0.1699165022E+00   0.0000000000E+00   0.1640630097E+00
  -0.7788881140E-03   0.6642330534E-02   0.1469823076E-02   0.1256392344E-03   0.0000000000E+00   0.0000000000E+00   0.2212544787E+01   0.1554934449E+01   0.0000000000E+00  -0.3355626568E+00
   0.1221619741E-02   0.5998004410E-02   0.1496274423E-02   0.1138357397E-03   0.0000000000E+00   0.0000000000E+00   0.2256146388E+01   0.1798500774E+01   0.0000000000E+00  -0.5169773651E-01
  -0.3366120374E-03   0.5860099486E-02   0.1474480453E-02   0.1183365556E-03   0.0000000000E+00   0.0000000000E+00   0.2338350686E+01   0.1695527023E+01   0.0000000000E+00  -0.3080215698E+00
   0.6642965568E-03   0.5536949965E-02   0.1488360748E-02   0.1114483549E-03   0.0000000000E+00   0.0000000000E+00   0.2383978373E+01   0.1875565552E+01   0.0000000000E+00  -0.1782559052E+00
   0.2213308531E-03   0.6319016554E-02   0.1483013803E-02   0.1185865736E-03   0.0000000000E+00   0.0000000000E+00   0.2236722475E+01   0.1690475362E+01   0.0000000000E+00  -0.2160951453E+00
   0.1074738172E-02   0.3964357710E-02   0.1493198460E-02   0.9646981960E-04   0.0000000000E+00   0.0000000000E+00   0.2772023004E+01   0.2295678427E+01   0.0000000000E+00  -0.1513864776E+00
   0.1539812948E-02   0.4044749462E-02   0.1500617932E-02   0.9675339230E-04   0.0000000000E+00   0.0000000000E+00   0.2758320919E+01   0.2318984517E+01   0.0000000000E+00   0.2330618080E-01
   0.3345626686E-02   0.4605445901E-02   0.1528945096E-02   0.1104193614E-03   0.0000000000E+00   0.0000000000E+00   0.2707641382E+01   0.1860238336E+01   0.0000000000E+00   0.4284122575E+00
   0.3598038423E-02   0.4107994913E-02   0.1535345653E-02   0.1097940426E-03   0.0000000000E+00   0.0000000000E+00   0.2890690260E+01   0.1907056383E+01   0.0000000000E+00   0.5214709609E+00
   0.6856421060E-02   0.2600443875E-02   0.1630659270E-02   0.1674942655E-03   0.0000000000E+00   0.0000000000E+00   0.2759741230E+01   0.4750624275E+00   0.0000000000E+00  -0.1936529575E+00
   0.6140024596E-02   0.3164900902E-02   0.1603244066E-02   0.1515401221E-03   0.0000000000E+00   0.0000000000E+00   0.2967954670E+01   0.7583848649E+00   0.0000000000E+00   0.9424797208E-01
   0.7013770674E-02   0.3442107264E-02   0.1618658114E-02   0.1656429642E-03   0.0000000000E+00   0.0000000000E+00   0.2731407881E+01   0.5926270628E+00   0.0000000000E+00   0.1679731389E-01
   0.1132435248E-01   0.3332215413E-02   0.1704878072E-02   0.2307508230E-03   0.0000000000E+00   0.0000000000E+00   0.2001269497E+01   0.2242955518E+00   0.0000000000E+00  -0.2964630235E+00
   0.1078336424E-01   0.4884060274E-02   0.1671006151E-02   0.2150198340E-03   0.0000000000E+00   0.0000000000E+00   0.2109842705E+01   0.3108661348E+00   0.0000000000E+00  -0.5838229349E-01
   0.5600427833E-02   0.3579259276E-02   0.1583877113E-02   0.1401290160E-03   0.0000000000E+00   0.0000000000E+00   0.3032754978E+01   0.9533382630E+00   0.0000000000E+00   0.3067528431E+00
  -0.6455607560E-02   0.4023525081E-02   0.1340495110E-02   0.2010205407E-03   0.0000000000E+00   0.0000000000E+00   0.2283614021E+01   0.3673432483E+00   0.0000000000E+00   0.9725998440E-01
  -0.7080651201E-02   0.5428736213E-02   0.1349291449E-02   0.2026503228E-03   0.0000000000E+00   0.0000000000E+00   0.2179841553E+01   0.3769369831E+00   0.0000000000E+00  -0.2763246663E-01
   0.7632332670E-02   0.4557861344E-02   0.1614956000E-02   0.1706530840E-03   0.0000000000E+00   0.0000000000E+00   0.2538463567E+01   0.6103530333E+00   0.0000000000E+00   0.1412272181E+00
   0.1147714563E-01   0.7364244597E-02   0.1652019364E-02   0.2122977072E-03   0.0000000000E+00   0.0000000000E+00   0.2022980803E+01   0.3888159744E+00   0.0000000000E+00   0.1355178950E+00
   0.1203800988E-01   0.6011751072E-02   0.1677400181E-02   0.2255077116E-03   0.0000000000E+00   0.0000000000E+00   0.1965684475E+01   0.2805269763E+00   0.0000000000E+00  -0.3226473227E-01
   0.1379289889E-01   0.6216222911E-02   0.1703407990E-02   0.2458398510E-03   0.0000000000E+00   0.0000000000E+00   0.1853966392E+01   0.2074543108E+00   0.0000000000E+00  -0.7198257582E-01
   0.1323233131E-01   0.7568564320E-02   0.1678323008E-02   0.2324777295E-03   0.0000000000E+00   0.0000000000E+00   0.1874578905E+01   0.2781674829E+00   0.0000000000E+00   0.5749724594E-01
   0.2035064306E-01   0.5172189340E-02   0.1809470963E-02   0.3207484395E-03   0.0000000000E+00   0.0000000000E+00   0.1407603507E+01   0.4214399034E-01   0.0000000000E+00  -0.2269814780E+00
  -0.7357918689E-02   0.7091237879E-02   0.1364001041E-02   0.1992813286E-03   0.0000000000E+00   0.0000000000E+00   0.2105938677E+01   0.4878266927E+00   0.0000000000E+00  -0.1757998713E+00
  -0.1077191093E-01   0.6455631905E-02   0.1299966767E-02   0.2443408345E-03   0.0000000000E+00   0.0000000000E+00   0.1828255288E+01   0.1968507073E+00   0.0000000000E+00   0.5326065781E-01
  -0.9994217732E-02   0.1009111056E-01   0.1349429968E-02   0.2197376124E-03   0.0000000000E+00   0.0000000000E+00   0.1834907060E+01   0.4089039772E+00   0.0000000000E+00  -0.2222376024E+00
  -0.1142126190E-01   0.8460381286E-02   0.1312717302E-02   0.2420481560E-03   0.0000000000E+00   0.0000000000E+00   0.1785326129E+01   0.2533036470E+00   0.0000000000E+00  -0.5818390400E-01
  -0.9340215258E-02   0.8084074099E-02   0.1341331042E-02   0.2197422691E-03   0.0000000000E+00   0.0000000000E+00   0.1952073570E+01   0.3756622049E+00   0.0000000000E+00  -0.1381851702E+00
  -0.1069281209E-01   0.2323332466E-01   0.1395139307E-02   0.2075884585E-03   0.0000000000E+00   0.0000000000E+00   0.1259250604E+01   0.4969329691E+00   0.0000000000E+00  -0.2598819413E+00
  -0.1083248889E-01   0.1544458749E-01   0.1370467810E-02   0.2152058901E-03   0.0000000000E+00   0.0000000000E+00   0.1564827359E+01   0.4989182709E+00   0.0000000000E+00  -0.3043489608E+00
  -0.5069539253E-02   0.1759344146E-01   0.1439673057E-02   0.1785828585E-03   0.0000000000E+00   0.0000000000E+00   0.1394679815E+01   0.7490136468E+00   0.0000000000E+00  -0.2331275041E+00
  -0.1076020108E-01   0.1933779577E-01   0.1385253016E-02   0.2102368727E-03   0.0000000000E+00   0.0000000000E+00   0.1413782886E+01   0.5138476595E+00   0.0000000000E+00  -0.2918663616E+00
  -0.7948436356E-02   0.1651542528E-01   0.1407647924E-02   0.1933042762E-03   0.0000000000E+00   0.0000000000E+00   0.1487516444E+01   0.6260247597E+00   0.0000000000E+00  -0.2761719555E+00
  -0.7881769153E-02   0.2041399986E-01   0.1416812477E-02   0.1937015599E-03   0.0000000000E+00   0.0000000000E+00   0.1312315731E+01   0.6095012352E+00   0.0000000000E+00  -0.2374762049E+00
   0.3365781132E-01  -0.7320774990E-03   0.2017672821E-02   0.4565614710E-03   0.0000000000E+00   0.0000000000E+00   0.9511245787E+00  -0.1625974107E-02   0.0000000000E+00  -0.2818067680E+00
   0.3344635308E-01  -0.3863901032E-02   0.2051252977E-02   0.4656574280E-03   0.0000000000E+00   0.0000000000E+00   0.8865682776E+00   0.2472316728E-01   0.0000000000E+00  -0.3158664524E+00
   0.3879029230E-01  -0.7316359109E-02   0.2129613600E-02   0.5143026115E-03   0.0000000000E+00   0.0000000000E+00   0.7743614568E+00   0.2676710420E-01   0.0000000000E+00  -0.2890642123E+00
   0.4133141322E-01  -0.6005589068E-02   0.2133767118E-02   0.5282278521E-03   0.0000000000E+00   0.0000000000E+00   0.7830624252E+00   0.5202381870E-02   0.0000000000E+00  -0.2605724678E+00
   0.3711251047E-01  -0.1741382828E-01   0.2235560372E-02   0.5198552244E-03   0.0000000000E+00   0.0000000000E+00   0.5655294890E+00   0.1376576428E+00   0.0000000000E+00  -0.3160850957E+00
   0.3621734573E-01  -0.2108536885E-01   0.2276475426E-02   0.5146391493E-03   0.0000000000E+00   0.0000000000E+00   0.4724177604E+00   0.1586264697E+00   0.0000000000E+00  -0.2982246302E+00
   0.3967488650E-01  -0.2005003556E-01   0.2278090497E-02   0.5421938365E-03   0.0000000000E+00   0.0000000000E+00   0.5174167225E+00   0.1293031079E+00   0.0000000000E+00  -0.2872806639E+00
  -0.1836410153E-01   0.1164539371E-01   0.1246743067E-02   0.2977422099E-03   0.0000000000E+00   0.0000000000E+00   0.1454935373E+01   0.8945983168E-01   0.0000000000E+00  -0.3504893552E-01
  -0.1828162152E+00   0.3084962052E-01   0.1069978147E-03   0.9800976247E-03   0.0000000000E+00   0.0000000000E+00   0.6794991168E+00  -0.2260515363E-01   0.0000000000E+00  -0.6521694591E-02
  -0.2000000030E+00   0.2101486526E-01   0.0000000000E+00   0.1014865661E-02   0.0000000000E+00   0.0000000000E+00   0.6259991184E+00  -0.2369121289E-01   0.0000000000E+00  -0.1070912077E-03
  -0.1914101407E+00   0.2593439731E-01   0.5146729253E-04   0.9996361084E-03   0.0000000000E+00   0.0000000000E+00   0.6530829793E+00  -0.2261724001E-01   0.0000000000E+00  -0.2758071983E-02
  -0.1915654439E+00   0.1600819720E-01   0.4665112670E-04   0.1026234497E-02   0.0000000000E+00   0.0000000000E+00   0.6006779189E+00  -0.2573160527E-01   0.0000000000E+00  -0.2267029209E-02
  -0.1829755800E+00   0.2092454365E-01   0.9811900148E-04   0.1007819251E-02   0.0000000000E+00   0.0000000000E+00   0.6268755050E+00  -0.2658443368E-01   0.0000000000E+00  -0.5219474560E-02
  -0.2724730465E-01   0.4151275139E-02   0.1067509349E-02   0.4107383887E-03   0.0000000000E+00   0.0000000000E+00   0.1097351794E+01  -0.3240462918E-01   0.0000000000E+00   0.2211424730E+00
  -0.4416331581E-01   0.4274442982E-02   0.9157962883E-03   0.5300324016E-03   0.0000000000E+00   0.0000000000E+00   0.8721224154E+00  -0.8147427487E-01   0.0000000000E+00   0.1415343489E+00
  -0.4074324610E-01   0.1693946119E-02   0.9215554039E-03   0.5178600986E-03   0.0000000000E+00   0.0000000000E+00   0.8776753445E+00  -0.5473863276E-01   0.0000000000E+00   0.1828720422E+00
  -0.4019587305E-01   0.6209393391E-02   0.9657982492E-03   0.4956055313E-03   0.0000000000E+00   0.0000000000E+00   0.9318646968E+00  -0.8202288469E-01   0.0000000000E+00   0.1339408575E+00
  -0.3927425817E-01  -0.1619532158E-01   0.7527940279E-03   0.5573778158E-03   0.0000000000E+00   0.0000000000E+00   0.6025053026E+00   0.8947552747E-01   0.0000000000E+00   0.2825760988E+00
   0.2911812921E-01  -0.3867483599E-01   0.2480096313E-02   0.4350460114E-03   0.0000000000E+00   0.0000000000E+00   0.1060885160E+00   0.1086587136E+00   0.0000000000E+00  -0.7481942581E-01
   0.1019825336E+00  -0.6751619075E-01   0.2826198622E-02   0.9646361514E-03   0.0000000000E+00   0.0000000000E+00   0.1570565071E+00  -0.9844230767E-03   0.0000000000E+00  -0.6195060196E-01
   0.8238602591E-01  -0.6778375667E-01   0.2802775912E-02   0.8606105343E-03   0.0000000000E+00   0.0000000000E+00   0.1237293207E+00   0.2161450806E-01   0.0000000000E+00  -0.5988215872E-01
   0.9267275545E-01  -0.8331240030E-01   0.2908398846E-02   0.9221204981E-03   0.0000000000E+00   0.0000000000E+00   0.1587116757E-01   0.4210957419E-02   0.0000000000E+00  -0.3505218012E-01
   0.9218330636E-01  -0.6764638747E-01   0.2813517564E-02   0.9162095339E-03   0.0000000000E+00   0.0000000000E+00   0.1422332908E+00   0.1072015819E-01   0.0000000000E+00  -0.6259688948E-01
   0.8753230456E-01  -0.7554680481E-01   0.2858497564E-02   0.8926354904E-03   0.0000000000E+00   0.0000000000E+00   0.6843823741E-01   0.1025532145E-01   0.0000000000E+00  -0.4644809676E-01
   0.9732505780E-01  -0.7541207453E-01   0.2864712005E-02   0.9456030739E-03   0.0000000000E+00   0.0000000000E+00   0.8700348354E-01   0.3696209509E-02   0.0000000000E+00  -0.4873240047E-01
  -0.4564519900E-01  -0.2268519972E-01   0.6550482984E-03   0.6111601794E-03   0.0000000000E+00   0.0000000000E+00   0.5034683554E+00   0.8806319986E-01   0.0000000000E+00   0.2322445335E+00
  -0.4224831729E-01  -0.1936896274E-01   0.7042798102E-03   0.5831090622E-03   0.0000000000E+00   0.0000000000E+00   0.5453163200E+00   0.8523582257E-01   0.0000000000E+00   0.2557555443E+00
   0.5523628526E-03   0.3702436622E-02   0.1484120821E-02   0.9622942177E-04   0.0000000000E+00   0.0000000000E+00   0.2942974647E+01   0.2336252761E+01   0.0000000000E+00  -0.3506329245E+00
   0.8634970836E-02   0.8534008033E-02   0.1595293486E-02   0.1751988629E-03   0.0000000000E+00   0.0000000000E+00   0.2079586033E+01   0.7958145813E+00   0.0000000000E+00   0.3696219711E+00
   0.8795605312E-02   0.6818142574E-02   0.1611455612E-02   0.1799672336E-03   0.0000000000E+00   0.0000000000E+00   0.2240758944E+01   0.6691973225E+00   0.0000000000E+00   0.2695651515E+00
   0.1021997667E-01   0.6235610922E-02   0.1643102977E-02   0.2008669522E-03   0.0000000000E+00   0.0000000000E+00   0.2177412882E+01   0.4253135705E+00   0.0000000000E+00   0.1098423458E+00
   0.1005502705E-01   0.7948083568E-02   0.1622625707E-02   0.1927053082E-03   0.0000000000E+00   0.0000000000E+00   0.2076947828E+01   0.5814683927E+00   0.0000000000E+00   0.2599088570E+00
   0.3328421067E-02   0.6600305819E-02   0.1523969837E-02   0.1227892089E-03   0.0000000000E+00   0.0000000000E+00   0.2193105268E+01   0.1613422756E+01   0.0000000000E+00   0.2844485808E+00
   0.2898789879E-02   0.5674551789E-02   0.1519449229E-02   0.1146552092E-03   0.0000000000E+00   0.0000000000E+00   0.2345290864E+01   0.1775875400E+01   0.0000000000E+00   0.2460903361E+00
   0.3774799005E-02   0.5532227422E-02   0.1533006845E-02   0.1195808519E-03   0.0000000000E+00   0.0000000000E+00   0.2504518944E+01   0.1689352671E+01   0.0000000000E+00   0.4271641240E+00
   0.1806450408E-02   0.4585387803E-02   0.1504583732E-02   0.1021993032E-03   0.0000000000E+00   0.0000000000E+00   0.2586074190E+01   0.2111131780E+01   0.0000000000E+00   0.8532980196E-01
   0.7507314051E-02   0.5687406841E-02   0.1599019471E-02   0.1652795814E-03   0.0000000000E+00   0.0000000000E+00   0.2456825038E+01   0.7957281892E+00   0.0000000000E+00   0.3038736936E+00
   0.1309485459E-01   0.1641116178E-01   0.1616843086E-02   0.2081922846E-03   0.0000000000E+00   0.0000000000E+00   0.1519144045E+01   0.5442140002E+00   0.0000000000E+00   0.3081800220E+00
   0.8190238415E-02   0.1256094103E-01   0.1571698615E-02   0.1727247339E-03   0.0000000000E+00   0.0000000000E+00   0.1689121805E+01   0.8597535103E+00   0.0000000000E+00   0.3290187270E+00
   0.1226027380E-01   0.1073224335E-01   0.1634929098E-02   0.2100770511E-03   0.0000000000E+00   0.0000000000E+00   0.1829507384E+01   0.4957936198E+00   0.0000000000E+00   0.2770197994E+00
   0.1064316936E-01   0.1448672421E-01   0.1594893708E-02   0.1911313054E-03   0.0000000000E+00   0.0000000000E+00   0.1583990030E+01   0.6848251232E+00   0.0000000000E+00   0.3061131728E+00
   0.1022292826E-01   0.1164388631E-01   0.1600986009E-02   0.1886950064E-03   0.0000000000E+00   0.0000000000E+00   0.1778211771E+01   0.6750536996E+00   0.0000000000E+00   0.3153427174E+00
   0.1267548937E-01   0.1357086415E-01   0.1623811266E-02   0.2082962525E-03   0.0000000000E+00   0.0000000000E+00   0.1682252995E+01   0.5391416318E+00   0.0000000000E+00   0.3091918553E+00
   0.1182906230E-02   0.5211795455E-02   0.1495481980E-02   0.1076606650E-03   0.0000000000E+00   0.0000000000E+00   0.2417337592E+01   0.1950311925E+01   0.0000000000E+00  -0.8109610610E-01
   0.1844603282E-02   0.5372253818E-02   0.1504815538E-02   0.1090314376E-03   0.0000000000E+00   0.0000000000E+00   0.2405168191E+01   0.1948978548E+01   0.0000000000E+00   0.8953203543E-01
   0.1614915504E-01   0.9865682803E-02   0.1698914139E-02   0.2544478028E-03   0.0000000000E+00   0.0000000000E+00   0.1707038064E+01   0.2221747602E+00   0.0000000000E+00   0.8589524490E-01
   0.1017699095E-01   0.2178410083E-01   0.1574554324E-02   0.1911205343E-03   0.0000000000E+00   0.0000000000E+00   0.1272093128E+01   0.6011444671E+00   0.0000000000E+00   0.2248506438E+00
   0.6810985625E-02   0.1749336354E-01   0.1548325295E-02   0.1734253416E-03   0.0000000000E+00   0.0000000000E+00   0.1379874753E+01   0.7843603620E+00   0.0000000000E+00   0.1979178962E+00
   0.8494235709E-02   0.1963915971E-01   0.1561687459E-02   0.1827005098E-03   0.0000000000E+00   0.0000000000E+00   0.1321709377E+01   0.6878129797E+00   0.0000000000E+00   0.2076946515E+00
   0.9950924370E-02   0.1694884917E-01   0.1580588220E-02   0.1873953677E-03   0.0000000000E+00   0.0000000000E+00   0.1459339161E+01   0.6731301133E+00   0.0000000000E+00   0.2655148227E+00
   0.1163345596E-01   0.1909543532E-01   0.1593232355E-02   0.1974604197E-03   0.0000000000E+00   0.0000000000E+00   0.1385104982E+01   0.5903893206E+00   0.0000000000E+00   0.2659861989E+00
   0.1092059319E-02   0.9138604334E-02   0.1495392920E-02   0.1335373940E-03   0.0000000000E+00   0.0000000000E+00   0.1818819175E+01   0.1374916952E+01   0.0000000000E+00  -0.4218074469E-01
   0.1577530630E-03   0.7889258190E-02   0.1483775503E-02   0.1283790705E-03   0.0000000000E+00   0.0000000000E+00   0.2014673229E+01   0.1497424155E+01   0.0000000000E+00  -0.1776770823E+00
   0.1156814331E-02   0.7569130873E-02   0.1495808472E-02   0.1245130730E-03   0.0000000000E+00   0.0000000000E+00   0.2008813047E+01   0.1534335890E+01   0.0000000000E+00  -0.4775704081E-01
  -0.8012362178E-02   0.9099770595E-02   0.1371658982E-02   0.2007729147E-03   0.0000000000E+00   0.0000000000E+00   0.1944428492E+01   0.5364785325E+00   0.0000000000E+00  -0.2610520904E+00
   0.3639324609E-01   0.7560109173E-02   0.1959642791E-02   0.4417346026E-03   0.0000000000E+00   0.0000000000E+00   0.1040200378E+01  -0.6897456586E-01   0.0000000000E+00  -0.1405203875E+00
   0.3359719226E-01   0.5759975200E-02   0.1949364757E-02   0.4292226202E-03   0.0000000000E+00   0.0000000000E+00   0.1067068212E+01  -0.4707975286E-01   0.0000000000E+00  -0.1805622889E+00
   0.3361746884E-01   0.2324204790E-02   0.1984468041E-02   0.4443030497E-03   0.0000000000E+00   0.0000000000E+00   0.1007874081E+01  -0.3174323737E-01   0.0000000000E+00  -0.2329226294E+00
   0.3641092198E-01   0.4124700346E-02   0.1992145380E-02   0.4571764958E-03   0.0000000000E+00   0.0000000000E+00   0.9878398454E+00  -0.5206081584E-01   0.0000000000E+00  -0.1919976563E+00
   0.2242128785E-01   0.6890783859E-02   0.1815001047E-02   0.3314808293E-03   0.0000000000E+00   0.0000000000E+00   0.1370059588E+01   0.2068201118E-01   0.0000000000E+00  -0.1555142724E+00
   0.5599808415E-01  -0.1024845135E-01   0.2269228045E-02   0.6341944476E-03   0.0000000000E+00   0.0000000000E+00   0.6611070797E+00  -0.2167798130E-01   0.0000000000E+00  -0.1810939768E+00
   0.4792615048E-01  -0.1337080389E-01   0.2249296976E-02   0.5910570063E-03   0.0000000000E+00   0.0000000000E+00   0.6435572068E+00   0.2992954092E-01   0.0000000000E+00  -0.2398338895E+00
   0.5196124790E-01  -0.1180885658E-01   0.2258394896E-02   0.6133968228E-03   0.0000000000E+00   0.0000000000E+00   0.6552252654E+00   0.5334193833E-02   0.0000000000E+00  -0.2099748140E+00
   0.5124431550E-01  -0.1616012065E-01   0.2294239402E-02   0.6185291461E-03   0.0000000000E+00   0.0000000000E+00   0.5985215972E+00   0.2981531727E-01   0.0000000000E+00  -0.2204498831E+00
   0.5527827469E-01  -0.1459833988E-01   0.2302195387E-02   0.6407023221E-03   0.0000000000E+00   0.0000000000E+00   0.6104049002E+00   0.5781017672E-02   0.0000000000E+00  -0.1947638144E+00
  -0.8037501794E-02   0.1117916548E-01   0.1385369486E-02   0.1968401798E-03   0.0000000000E+00   0.0000000000E+00   0.1805606649E+01   0.5969618364E+00   0.0000000000E+00  -0.2954564666E+00
  -0.1260362757E-01   0.1081062485E-01   0.1317460033E-02   0.2446547507E-03   0.0000000000E+00   0.0000000000E+00   0.1686437422E+01   0.2737042569E+00   0.0000000000E+00  -0.1468840886E+00
   0.4424855811E-01  -0.1487471061E-01   0.2243697209E-02   0.5691722933E-03   0.0000000000E+00   0.0000000000E+00   0.6251610345E+00   0.6530273563E-01   0.0000000000E+00  -0.2674336393E+00
   0.4353356950E-01  -0.1900685910E-01   0.2283810000E-02   0.5702939012E-03   0.0000000000E+00   0.0000000000E+00   0.5500158388E+00   0.9180499996E-01   0.0000000000E+00  -0.2679937421E+00
   0.4720789941E-01  -0.1750104816E-01   0.2286151111E-02   0.5940838439E-03   0.0000000000E+00   0.0000000000E+00   0.5789029738E+00   0.6209819248E-01   0.0000000000E+00  -0.2459653428E+00
  -0.1626888838E-01   0.1458750363E-01   0.1297103315E-02   0.2654742336E-03   0.0000000000E+00   0.0000000000E+00   0.1524758240E+01   0.2214849478E+00   0.0000000000E+00  -0.1757748794E+00
  -0.1301891881E-01   0.1348417069E-01   0.1331823287E-02   0.2391971944E-03   0.0000000000E+00   0.0000000000E+00   0.1594349285E+01   0.3247563894E+00   0.0000000000E+00  -0.2042985343E+00
  -0.1408185874E-01   0.1654620633E-01   0.1336348560E-02   0.2397687279E-03   0.0000000000E+00   0.0000000000E+00   0.1485174329E+01   0.3581770519E+00   0.0000000000E+00  -0.2555767172E+00
  -0.2861872263E-01   0.1065422584E-01   0.1117127575E-02   0.3907456409E-03   0.0000000000E+00   0.0000000000E+00   0.1168068802E+01  -0.5107665602E-01   0.0000000000E+00   0.8341769565E-01
  -0.2955447164E-01   0.6768105526E-02   0.1070931261E-02   0.4166606562E-03   0.0000000000E+00   0.0000000000E+00   0.1091845998E+01  -0.4750502191E-01   0.0000000000E+00   0.1627608463E+00
  -0.2630776445E-01   0.8037628812E-02   0.1117494948E-02   0.3850564516E-03   0.0000000000E+00   0.0000000000E+00   0.1194389114E+01  -0.2849032252E-01   0.0000000000E+00   0.1400071072E+00
   0.1516429515E+00  -0.4864032147E-01   0.2863320452E-02   0.1102641727E-02   0.0000000000E+00   0.0000000000E+00   0.2886746240E+00  -0.2677706213E-01   0.0000000000E+00  -0.2844298604E-01
   0.1714984086E+00  -0.5721624403E-01   0.2928933606E-02   0.1144924969E-02   0.0000000000E+00   0.0000000000E+00   0.2422834749E+00  -0.1649196824E-01   0.0000000000E+00  -0.1642897605E-01
   0.1701264040E+00  -0.3809446039E-01   0.2897541045E-02   0.1117766509E-02   0.0000000000E+00   0.0000000000E+00   0.3363943972E+00  -0.2767567095E-01   0.0000000000E+00  -0.1382764273E-01
   0.1615728591E+00  -0.5292596454E-01   0.2898306101E-02   0.1126101563E-02   0.0000000000E+00   0.0000000000E+00   0.2642640230E+00  -0.2173973668E-01   0.0000000000E+00  -0.2199975295E-01
   0.1708127315E+00  -0.4765420759E-01   0.2913569507E-02   0.1132492214E-02   0.0000000000E+00   0.0000000000E+00   0.2892411348E+00  -0.2240504130E-01   0.0000000000E+00  -0.1563710349E-01
   0.1608824930E+00  -0.4336549907E-01   0.2878239037E-02   0.1112097829E-02   0.0000000000E+00   0.0000000000E+00   0.3134183634E+00  -0.2694785041E-01   0.0000000000E+00  -0.2053322374E-01
  -0.2506802735E-01   0.1120826139E-01   0.1161477146E-02   0.3591533933E-03   0.0000000000E+00   0.0000000000E+00   0.1249859431E+01  -0.1843197586E-01   0.0000000000E+00   0.5236888684E-01
  -0.1825958094E+00   0.4075757970E-01   0.1165666371E-03   0.9506326015E-03   0.0000000000E+00   0.0000000000E+00   0.7336435403E+00  -0.1891895604E-01   0.0000000000E+00  -0.7180770829E-02
  -0.1739376240E+00   0.3566222536E-01   0.1683780295E-03   0.9559978593E-03   0.0000000000E+00   0.0000000000E+00   0.7069993559E+00  -0.2322421481E-01   0.0000000000E+00  -0.1046064833E-01
   0.3800829082E-01  -0.4491207204E-01   0.2556159622E-02   0.5209798637E-03   0.0000000000E+00   0.0000000000E+00   0.1270741317E+00   0.1106193858E+00   0.0000000000E+00  -0.7293559140E-01
   0.3398433364E-01  -0.4576764296E-01   0.2562396636E-02   0.4808377399E-03   0.0000000000E+00   0.0000000000E+00   0.9234534198E-01   0.9180072347E-01   0.0000000000E+00  -0.4598205715E-01
   0.3563091183E-01  -0.4172676321E-01   0.2519753029E-02   0.4998381891E-03   0.0000000000E+00   0.0000000000E+00   0.1333786240E+00   0.1204862111E+00   0.0000000000E+00  -0.8696312240E-01
   0.3160723205E-01  -0.4258346465E-01   0.2526267446E-02   0.4585692541E-03   0.0000000000E+00   0.0000000000E+00   0.1001242892E+00   0.1018419379E+00   0.0000000000E+00  -0.6225743611E-01
   0.7316403157E-01  -0.5267483445E-01   0.2679795666E-02   0.7977664487E-03   0.0000000000E+00   0.0000000000E+00   0.2321378459E+00   0.4504599766E-01   0.0000000000E+00  -0.9230193057E-01
   0.6773664986E-01  -0.6027875747E-01   0.2730349060E-02   0.7629702277E-03   0.0000000000E+00   0.0000000000E+00   0.1503930184E+00   0.4932504980E-01   0.0000000000E+00  -0.6465675147E-01
   0.7234934768E-01  -0.6783195247E-01   0.2793543581E-02   0.7956583335E-03   0.0000000000E+00   0.0000000000E+00   0.1002032979E+00   0.3493520302E-01   0.0000000000E+00  -0.4864323977E-01
   0.7777751271E-01  -0.6022848922E-01   0.2743773507E-02   0.8299947847E-03   0.0000000000E+00   0.0000000000E+00   0.1754615859E+00   0.3110572681E-01   0.0000000000E+00  -0.7424572892E-01
  -0.1341890527E+00  -0.1659826630E-01   0.2752562688E-03   0.1009439403E-02   0.0000000000E+00   0.0000000000E+00   0.4662811191E+00  -0.5337089636E-01   0.0000000000E+00   0.1671771873E-01
  -0.1489713020E+00  -0.2711719825E-01   0.1863710091E-03   0.1067813549E-02   0.0000000000E+00   0.0000000000E+00   0.4002150910E+00  -0.4038820252E-01   0.0000000000E+00   0.1768855793E-01
  -0.1323451093E+00  -0.3337732810E-01   0.2307006800E-03   0.1039287903E-02   0.0000000000E+00   0.0000000000E+00   0.3793585823E+00  -0.4251083390E-01   0.0000000000E+00   0.3306357134E-01
  -0.1415822644E+00  -0.2185596230E-01   0.2287186351E-03   0.1040396402E-02   0.0000000000E+00   0.0000000000E+00   0.4330802752E+00  -0.4677014079E-01   0.0000000000E+00   0.1729946737E-01
  -0.1406571580E+00  -0.3024585578E-01   0.2095839510E-03   0.1054957223E-02   0.0000000000E+00   0.0000000000E+00   0.3902159968E+00  -0.4116814219E-01   0.0000000000E+00   0.2507719829E-01
  -0.1332665245E+00  -0.2498688385E-01   0.2535425124E-03   0.1025276049E-02   0.0000000000E+00   0.0000000000E+00   0.4226753497E+00  -0.4841408873E-01   0.0000000000E+00   0.2509947871E-01
  -0.1100503635E+00  -0.8251608333E-01   0.8833550386E-04   0.1018723668E-02   0.0000000000E+00   0.0000000000E+00   0.5935876290E-01  -0.1866390337E-02   0.0000000000E+00   0.3744492535E-01
  -0.1198407201E+00  -0.8232276163E-01   0.8288690978E-04   0.1055292573E-02   0.0000000000E+00   0.0000000000E+00   0.7575269932E-01  -0.2521930770E-02   0.0000000000E+00   0.3414900868E-01
  -0.1150178249E+00  -0.9072813674E-01   0.5152006543E-04   0.1039263760E-02   0.0000000000E+00   0.0000000000E+00   0.1133232924E-01  -0.1310698011E-02   0.0000000000E+00   0.1902040284E-01
  -0.9073127237E-01  -0.8209021592E-01   0.9861413025E-04   0.9278709817E-03   0.0000000000E+00   0.0000000000E+00   0.2784657873E-01   0.4249177927E-02   0.0000000000E+00   0.3768268032E-01
  -0.8001100826E-01  -0.9913990327E-01  -0.1101005805E-04   0.8600977299E-03   0.0000000000E+00   0.0000000000E+00  -0.1338600925E+00  -0.6817310100E-03   0.0000000000E+00   0.1097187995E-02
  -0.8048252212E-01  -0.8074023684E-01   0.1092905830E-03   0.8685577628E-03   0.0000000000E+00   0.0000000000E+00   0.1893271938E-01   0.9989602345E-02   0.0000000000E+00   0.3302874559E-01
  -0.8536802740E-01  -0.9061242774E-01   0.4691869770E-04   0.8966164598E-03   0.0000000000E+00   0.0000000000E+00  -0.5223146466E-01   0.2513555489E-02   0.0000000000E+00   0.1816783557E-01
  -0.7512613140E-01  -0.8926746175E-01   0.5073350405E-04   0.8322901473E-03   0.0000000000E+00   0.0000000000E+00  -0.6037929398E-01   0.5954288850E-02   0.0000000000E+00   0.1224110610E-01
   0.4690508722E-02   0.6433807692E-02   0.1544299432E-02   0.1316926518E-03   0.0000000000E+00   0.0000000000E+00   0.2334481704E+01   0.1399344832E+01   0.0000000000E+00   0.4060777618E+00
   0.5057047743E-02   0.9309258641E-02   0.1541492223E-02   0.1450668606E-03   0.0000000000E+00   0.0000000000E+00   0.1895271675E+01   0.1212909587E+01   0.0000000000E+00   0.3134718623E+00
   0.2209081608E-02   0.7868111211E-02   0.1508522781E-02   0.1268192011E-03   0.0000000000E+00   0.0000000000E+00   0.2002295447E+01   0.1527409394E+01   0.0000000000E+00   0.1029948609E+00
   0.4193134397E-02   0.7955410360E-02   0.1533130907E-02   0.1345564003E-03   0.0000000000E+00   0.0000000000E+00   0.2017959085E+01   0.1382020753E+01   0.0000000000E+00   0.2830470408E+00
   0.3073940292E-02   0.9220672455E-02   0.1517829372E-02   0.1360435654E-03   0.0000000000E+00   0.0000000000E+00   0.1854783063E+01   0.1302850747E+01   0.0000000000E+00   0.1500612025E+00
  -0.9916901750E-03   0.5624710322E-02   0.1463834695E-02   0.1218828519E-03   0.0000000000E+00   0.0000000000E+00   0.2500357434E+01   0.1634418769E+01   0.0000000000E+00  -0.4480743396E+00
  -0.5494983276E-03   0.4841579168E-02   0.1468407842E-02   0.1136800684E-03   0.0000000000E+00   0.0000000000E+00   0.2648254975E+01   0.1777988768E+01   0.0000000000E+00  -0.4276037876E+00
  -0.1461393745E-02   0.1319517755E-01   0.1470508205E-02   0.1555923496E-03   0.0000000000E+00   0.0000000000E+00   0.1554196645E+01   0.1019883403E+01   0.0000000000E+00  -0.1719565891E+00
  -0.2121987960E-02   0.1120717224E-01   0.1461114530E-02   0.1517744391E-03   0.0000000000E+00   0.0000000000E+00   0.1742578906E+01   0.1101928330E+01   0.0000000000E+00  -0.2661255409E+00
  -0.8457614271E-03   0.9176619124E-02   0.1473056923E-02   0.1384799944E-03   0.0000000000E+00   0.0000000000E+00   0.1879618713E+01   0.1268977435E+01   0.0000000000E+00  -0.2151450842E+00
  -0.1853237735E-03   0.1116726588E-01   0.1482294046E-02   0.1449402750E-03   0.0000000000E+00   0.0000000000E+00   0.1677053970E+01   0.1186736021E+01   0.0000000000E+00  -0.1050547371E+00
   0.5554056865E-02   0.7789128459E-02   0.1552295545E-02   0.1436760594E-03   0.0000000000E+00   0.0000000000E+00   0.2154390255E+01   0.1238768109E+01   0.0000000000E+00   0.4046021139E+00
   0.2275132291E-02   0.6297717438E-02   0.1510234034E-02   0.1168750285E-03   0.0000000000E+00   0.0000000000E+00   0.2222345423E+01   0.1722896702E+01   0.0000000000E+00   0.1372317688E+00
  -0.2961120172E-02   0.7644905309E-02   0.1441128948E-02   0.1469492686E-03   0.0000000000E+00   0.0000000000E+00   0.2199811696E+01   0.1179973453E+01   0.0000000000E+00  -0.4241212100E+00
  -0.1958296521E-02   0.6354617944E-02   0.1451156679E-02   0.1339214543E-03   0.0000000000E+00   0.0000000000E+00   0.2361619257E+01   0.1344226333E+01   0.0000000000E+00  -0.4144138143E+00
  -0.1782563750E-02   0.7932137250E-02   0.1458943590E-02   0.1381864001E-03   0.0000000000E+00   0.0000000000E+00   0.2050526064E+01   0.1328096640E+01   0.0000000000E+00  -0.3323242628E+00
   0.1362141999E-01   0.9250861949E-02   0.1667302387E-02   0.2296654393E-03   0.0000000000E+00   0.0000000000E+00   0.1810341895E+01   0.3258529342E+00   0.0000000000E+00   0.1313456994E+00
   0.1478803892E-01   0.1134640745E-01   0.1666570016E-02   0.2342026457E-03   0.0000000000E+00   0.0000000000E+00   0.1706960769E+01   0.3470009407E+00   0.0000000000E+00   0.1991130552E+00
   0.8410554204E-02   0.1054622575E-01   0.1581445624E-02   0.1727134510E-03   0.0000000000E+00   0.0000000000E+00   0.1892487095E+01   0.8565487548E+00   0.0000000000E+00   0.3669505882E+00
   0.1044823925E-01   0.9633808480E-02   0.1615728686E-02   0.1933212297E-03   0.0000000000E+00   0.0000000000E+00   0.1925894310E+01   0.6201055463E+00   0.0000000000E+00   0.3008969388E+00
  -0.8459650752E-02   0.1385904139E-01   0.1392875028E-02   0.1977107885E-03   0.0000000000E+00   0.0000000000E+00   0.1629554384E+01   0.6321466995E+00   0.0000000000E+00  -0.3129307846E+00
  -0.1041119518E-01   0.1276694611E-01   0.1362107016E-02   0.2165688148E-03   0.0000000000E+00   0.0000000000E+00   0.1715792796E+01   0.4777234438E+00   0.0000000000E+00  -0.2823482888E+00
   0.2421612166E-01   0.9023101078E-02   0.1814189060E-02   0.3369348175E-03   0.0000000000E+00   0.0000000000E+00   0.1333200734E+01   0.1235234102E-01   0.0000000000E+00  -0.9793581683E-01
   0.2756571502E-01   0.1699751867E-01   0.1786015117E-02   0.3270643688E-03   0.0000000000E+00   0.0000000000E+00   0.1289515364E+01   0.3980769627E-01   0.0000000000E+00   0.9243361606E-01
   0.2976484811E-01   0.1036368849E-01   0.1865314606E-02   0.3773139624E-03   0.0000000000E+00   0.0000000000E+00   0.1205153447E+01  -0.3862391686E-01   0.0000000000E+00  -0.8520192764E-01
   0.2544799080E-01   0.1439800935E-01   0.1780703696E-02   0.3213051522E-03   0.0000000000E+00   0.0000000000E+00   0.1351390103E+01   0.4869553784E-01   0.0000000000E+00   0.5446973651E-01
   0.2654932743E-01   0.1108162466E-01   0.1822124428E-02   0.3469603618E-03   0.0000000000E+00   0.0000000000E+00   0.1294014023E+01   0.2087853085E-02   0.0000000000E+00  -0.4254886354E-01
   0.2866361463E-01   0.1368032210E-01   0.1823997035E-02   0.3519077015E-03   0.0000000000E+00   0.0000000000E+00   0.1247107350E+01  -0.5306089405E-02   0.0000000000E+00  -0.1137106975E-02
  -0.2132234981E-02   0.2350066671E-01   0.1470576849E-02   0.1781087104E-03   0.0000000000E+00   0.0000000000E+00   0.1175465078E+01   0.6407253129E+00   0.0000000000E+00  -0.9480010479E-01
  -0.6411147803E-02   0.2336320872E-01   0.1434233467E-02   0.1890606171E-03   0.0000000000E+00   0.0000000000E+00   0.1222854948E+01   0.5773398412E+00   0.0000000000E+00  -0.1870136692E+00
  -0.3599641069E-02   0.2054617648E-01   0.1456370891E-02   0.1774681817E-03   0.0000000000E+00   0.0000000000E+00   0.1286315937E+01   0.7045597278E+00   0.0000000000E+00  -0.1649520471E+00
   0.3445338525E-02   0.1324072668E-01   0.1519196965E-02   0.1531783814E-03   0.0000000000E+00   0.0000000000E+00   0.1536461880E+01   0.1041411033E+01   0.0000000000E+00   0.1157845170E+00
   0.2269417649E-02   0.1118987073E-01   0.1508013656E-02   0.1435635258E-03   0.0000000000E+00   0.0000000000E+00   0.1668255918E+01   0.1201066243E+01   0.0000000000E+00   0.3650013477E-01
   0.4249937319E-02   0.1127428800E-01   0.1529088659E-02   0.1484179980E-03   0.0000000000E+00   0.0000000000E+00   0.1712302297E+01   0.1140300415E+01   0.0000000000E+00   0.2144034910E+00
  -0.5575888004E-02   0.1493191995E-01   0.1429765336E-02   0.1778518538E-03   0.0000000000E+00   0.0000000000E+00   0.1562700109E+01   0.7899876214E+00   0.0000000000E+00  -0.2950880201E+00
  -0.3771868343E-02   0.1273068217E-01   0.1445130167E-02   0.1642497711E-03   0.0000000000E+00   0.0000000000E+00   0.1646454448E+01   0.9116292063E+00   0.0000000000E+00  -0.2667801067E+00
  -0.3265954991E-02   0.1539472275E-01   0.1454602029E-02   0.1675008491E-03   0.0000000000E+00   0.0000000000E+00   0.1465627865E+01   0.8738599014E+00   0.0000000000E+00  -0.1959550494E+00
   0.2743330822E-01   0.8306170873E-02   0.1859045016E-02   0.3682943632E-03   0.0000000000E+00   0.0000000000E+00   0.1244452346E+01  -0.1822970066E-01   0.0000000000E+00  -0.1325067248E+00
   0.2795389145E-01   0.5104292070E-02   0.1898369148E-02   0.3880372999E-03   0.0000000000E+00   0.0000000000E+00   0.1169016842E+01  -0.2170040510E-01   0.0000000000E+00  -0.2086849445E+00
   0.3028244470E-01   0.7161826307E-02   0.1901652100E-02   0.3970739871E-03   0.0000000000E+00   0.0000000000E+00   0.1142873171E+01  -0.3873117202E-01   0.0000000000E+00  -0.1598917342E+00
   0.2896575890E-01   0.3162161386E-01   0.1727805300E-02   0.2830040594E-03   0.0000000000E+00   0.0000000000E+00   0.1113737554E+01   0.1484455050E+00   0.0000000000E+00   0.2390898042E+00
   0.3263861787E-01   0.2325257361E-01   0.1802156770E-02   0.3392573149E-03   0.0000000000E+00   0.0000000000E+00   0.1177250858E+01   0.2599572409E-01   0.0000000000E+00   0.1464987764E+00
   0.2657491429E-01   0.2772667462E-01   0.1718454991E-02   0.2789313158E-03   0.0000000000E+00   0.0000000000E+00   0.1182445110E+01   0.1680481269E+00   0.0000000000E+00   0.2343149241E+00
   0.2841157516E-01   0.2354141788E-01   0.1755860156E-02   0.3063203774E-03   0.0000000000E+00   0.0000000000E+00   0.1223963883E+01   0.1115451657E+00   0.0000000000E+00   0.1931809817E+00
   0.3079930167E-01   0.2743517797E-01   0.1762094268E-02   0.3092158747E-03   0.0000000000E+00   0.0000000000E+00   0.1147559355E+01   0.8928487956E-01   0.0000000000E+00   0.1948207784E+00
   0.4315978251E-01   0.1179234320E-01   0.1988272706E-02   0.4702229976E-03   0.0000000000E+00   0.0000000000E+00   0.9872560358E+00  -0.9596212603E-01   0.0000000000E+00  -0.6945532965E-01
   0.4274803791E-01   0.3186634794E-02   0.2056777708E-02   0.5052330041E-03   0.0000000000E+00   0.0000000000E+00   0.9023174562E+00  -0.6648661457E-01   0.0000000000E+00  -0.1725236418E+00
   0.3977612699E-01   0.9676603702E-02   0.1973572288E-02   0.4563565420E-03   0.0000000000E+00   0.0000000000E+00   0.1016441484E+01  -0.7994893213E-01   0.0000000000E+00  -0.1028113662E+00
   0.3957171547E-01   0.5374148819E-02   0.2009285568E-02   0.4742605190E-03   0.0000000000E+00   0.0000000000E+00   0.9696640184E+00  -0.6656423710E-01   0.0000000000E+00  -0.1572061574E+00
   0.4295260250E-01   0.7490127142E-02   0.2021217501E-02   0.4883662622E-03   0.0000000000E+00   0.0000000000E+00   0.9431619083E+00  -0.8343173800E-01   0.0000000000E+00  -0.1218795612E+00
   0.7898192727E-01   0.2992469737E-01   0.2179934271E-02   0.6128075657E-03   0.0000000000E+00   0.0000000000E+00   0.8082552938E+00  -0.1187023349E+00   0.0000000000E+00   0.6079953424E-01
   0.9063269781E-01   0.2887922504E-01   0.2272984212E-02   0.6811542373E-03   0.0000000000E+00   0.0000000000E+00   0.7638738598E+00  -0.1102168254E+00   0.0000000000E+00   0.5022836080E-01
   0.8322805933E-01   0.4047779825E-01   0.2163164531E-02   0.5931564493E-03   0.0000000000E+00   0.0000000000E+00   0.8219710987E+00  -0.1045419563E+00   0.0000000000E+00   0.9317739369E-01
   0.8480797312E-01   0.2940261780E-01   0.2227123618E-02   0.6476384048E-03   0.0000000000E+00   0.0000000000E+00   0.7840612946E+00  -0.1155418701E+00   0.0000000000E+00   0.5487602142E-01
   0.8693072363E-01   0.3467917304E-01   0.2218419433E-02   0.6378167381E-03   0.0000000000E+00   0.0000000000E+00   0.7938265105E+00  -0.1071153606E+00   0.0000000000E+00   0.6987605665E-01
   0.8110447908E-01   0.3520109530E-01   0.2171031484E-02   0.6028304968E-03   0.0000000000E+00   0.0000000000E+00   0.8161509103E+00  -0.1096238457E+00   0.0000000000E+00   0.7903895847E-01
  -0.1702027076E-01   0.2876352444E-01   0.1347880243E-02   0.2357225357E-03   0.0000000000E+00   0.0000000000E+00   0.1151653649E+01   0.3056196637E+00   0.0000000000E+00  -0.2393607325E+00
  -0.1538707532E-01   0.2430704208E-01   0.1351933581E-02   0.2334356804E-03   0.0000000000E+00   0.0000000000E+00   0.1256683118E+01   0.3700928860E+00   0.0000000000E+00  -0.2671375965E+00
  -0.1232890828E-01   0.2769283593E-01   0.1388186119E-02   0.2129042336E-03   0.0000000000E+00   0.0000000000E+00   0.1156769038E+01   0.4087887373E+00   0.0000000000E+00  -0.2308388313E+00
  -0.1870480949E-01   0.2151516246E-01   0.1306950811E-02   0.2626793554E-03   0.0000000000E+00   0.0000000000E+00   0.1334892014E+01   0.2416391775E+00   0.0000000000E+00  -0.2422029926E+00
  -0.2259176872E-01   0.2178744912E-01   0.1265554777E-02   0.2914735184E-03   0.0000000000E+00   0.0000000000E+00   0.1262943433E+01   0.1374831462E+00   0.0000000000E+00  -0.1840841691E+00
  -0.3350053172E-01   0.1719840831E-01   0.1118136580E-02   0.3963768119E-03   0.0000000000E+00   0.0000000000E+00   0.1122325392E+01  -0.5916092407E-01   0.0000000000E+00  -0.2343113624E-01
  -0.3486172985E-01   0.1267096351E-01   0.1069723254E-02   0.4283650144E-03   0.0000000000E+00   0.0000000000E+00   0.1063195924E+01  -0.7406040285E-01   0.0000000000E+00   0.5598022301E-01
  -0.3242355111E-01   0.9399293087E-02   0.1066491987E-02   0.4259702767E-03   0.0000000000E+00   0.0000000000E+00   0.1075799764E+01  -0.6824423703E-01   0.0000000000E+00   0.1069795945E+00
  -0.3105841730E-01   0.1392647449E-01   0.1118841004E-02   0.3937185927E-03   0.0000000000E+00   0.0000000000E+00   0.1154299794E+01  -0.4814642940E-01   0.0000000000E+00   0.2401594135E-01
   0.3754889616E-01  -0.3831454331E-01   0.2483941857E-02   0.5207064879E-03   0.0000000000E+00   0.0000000000E+00   0.1893640595E+00   0.1377852514E+00   0.0000000000E+00  -0.1254762567E+00
   0.1323889429E+00  -0.8262805694E-01   0.2925508865E-02   0.1085824756E-02   0.0000000000E+00   0.0000000000E+00   0.8696809850E-01  -0.3907568852E-02   0.0000000000E+00  -0.2926992173E-01
   0.1224859616E+00  -0.8280276660E-01   0.2918731577E-02   0.1054203498E-02   0.0000000000E+00   0.0000000000E+00   0.7199518129E-01  -0.2293898832E-02   0.0000000000E+00  -0.3349456022E-01
   0.1276822457E+00  -0.9078371468E-01   0.2950526731E-02   0.1073226919E-02   0.0000000000E+00   0.0000000000E+00   0.2639422827E-01  -0.1359487106E-02   0.0000000000E+00  -0.1593630802E-01
  -0.1394243858E+00   0.6604973476E-01   0.4807692406E-03   0.7747362632E-03   0.0000000000E+00   0.0000000000E+00   0.8669611094E+00  -0.2032196127E-01   0.0000000000E+00  -0.3242758174E-01
  -0.1189157577E+00   0.6767373537E-01   0.6489762535E-03   0.6890371674E-03   0.0000000000E+00   0.0000000000E+00   0.8661713797E+00  -0.3024886311E-01   0.0000000000E+00  -0.5549603601E-01
  -0.1291703166E+00   0.6686452072E-01   0.5646313522E-03   0.7346723166E-03   0.0000000000E+00   0.0000000000E+00   0.8674991107E+00  -0.2469042272E-01   0.0000000000E+00  -0.4310621481E-01
  -0.1241765612E+00   0.7566855823E-01   0.6357588237E-03   0.6823760343E-03   0.0000000000E+00   0.0000000000E+00   0.9070957689E+00  -0.1774725490E-01   0.0000000000E+00  -0.4153914662E-01
  -0.1344342984E+00   0.7485671689E-01   0.5482276179E-03   0.7253845870E-03   0.0000000000E+00   0.0000000000E+00   0.9067750141E+00  -0.1526762863E-01   0.0000000000E+00  -0.3145615176E-01
   0.7345728011E-02   0.7403980649E-02   0.1581905771E-02   0.1612190995E-03   0.0000000000E+00   0.0000000000E+00   0.2217026343E+01   0.9324793715E+00   0.0000000000E+00   0.3907195311E+00
   0.6844093568E-02   0.8918868321E-02   0.1566477128E-02   0.1573673806E-03   0.0000000000E+00   0.0000000000E+00   0.2012061160E+01   0.1009826691E+01   0.0000000000E+00   0.3663523701E+00
   0.1186737555E-01   0.9047727245E-02   0.1642140051E-02   0.2106708951E-03   0.0000000000E+00   0.0000000000E+00   0.1942801631E+01   0.4608468631E+00   0.0000000000E+00   0.2222837242E+00
   0.1520093312E-01   0.1418225232E-01   0.1653130821E-02   0.2296459155E-03   0.0000000000E+00   0.0000000000E+00   0.1584043327E+01   0.3843768005E+00   0.0000000000E+00   0.2356745233E+00
   0.1883279484E-01   0.1466501814E-01   0.1696798443E-02   0.2611897420E-03   0.0000000000E+00   0.0000000000E+00   0.1530423044E+01   0.2308557203E+00   0.0000000000E+00   0.1835548926E+00
   0.1672386556E-01   0.1689016443E-01   0.1657659057E-02   0.2359729261E-03   0.0000000000E+00   0.0000000000E+00   0.1483706888E+01   0.3845471153E+00   0.0000000000E+00   0.2681019407E+00
   0.6624135127E-02   0.1093569234E-01   0.1557087467E-02   0.1594882363E-03   0.0000000000E+00   0.0000000000E+00   0.1773337866E+01   0.1016816116E+01   0.0000000000E+00   0.3075562973E+00
   0.1061957227E-02   0.1799306694E-01   0.1496154276E-02   0.1651742447E-03   0.0000000000E+00   0.0000000000E+00   0.1319754520E+01   0.8322914379E+00   0.0000000000E+00  -0.1708645080E-01
  -0.1988162645E-03   0.1559373607E-01   0.1484233225E-02   0.1599971713E-03   0.0000000000E+00   0.0000000000E+00   0.1436652091E+01   0.9314417663E+00   0.0000000000E+00  -0.9323945863E-01
   0.9921189710E-03   0.1321487682E-01   0.1494999168E-02   0.1513100233E-03   0.0000000000E+00   0.0000000000E+00   0.1543260571E+01   0.1030763535E+01   0.0000000000E+00  -0.2962908294E-01
   0.2252932693E-02   0.1561683622E-01   0.1506960424E-02   0.1591157215E-03   0.0000000000E+00   0.0000000000E+00   0.1425461327E+01   0.9355998398E+00   0.0000000000E+00   0.4946194085E-01
   0.1392510597E-01   0.3818241367E-01   0.1588340573E-02   0.2005011701E-03   0.0000000000E+00   0.0000000000E+00   0.9578322828E+00   0.3291871207E+00   0.0000000000E+00   0.1592835367E+00
   0.3059183191E-02   0.3667095109E-01   0.1510966281E-02   0.1830997904E-03   0.0000000000E+00   0.0000000000E+00   0.9424428624E+00   0.3992324397E+00   0.0000000000E+00   0.2323620196E-01
   0.1002621387E-01   0.2889074075E-01   0.1565768541E-02   0.1927620506E-03   0.0000000000E+00   0.0000000000E+00   0.1087487890E+01   0.4854852453E+00   0.0000000000E+00   0.1609280309E+00
   0.8491713091E-02   0.3742343090E-01   0.1549222041E-02   0.1885509017E-03   0.0000000000E+00   0.0000000000E+00   0.9523081841E+00   0.3670692700E+00   0.0000000000E+00   0.9711418097E-01
   0.6541205769E-02   0.3277897824E-01   0.1536874769E-02   0.1860632351E-03   0.0000000000E+00   0.0000000000E+00   0.1013791651E+01   0.4503377789E+00   0.0000000000E+00   0.8505650989E-01
   0.1197597775E-01   0.3353757639E-01   0.1577371947E-02   0.1976288874E-03   0.0000000000E+00   0.0000000000E+00   0.1016349525E+01   0.3943072385E+00   0.0000000000E+00   0.1546661581E+00
   0.2183993151E-01   0.1458292116E-01   0.1735296013E-02   0.2887373587E-03   0.0000000000E+00   0.0000000000E+00   0.1419986758E+01   0.1300603295E+00   0.0000000000E+00   0.1069464261E+00
   0.3514994242E-01   0.1519469826E-01   0.1882690320E-02   0.3958633616E-03   0.0000000000E+00   0.0000000000E+00   0.1134010210E+01  -0.5856263173E-01   0.0000000000E+00  -0.5229344046E-02
   0.3245685531E-01   0.1277948224E-01   0.1873462506E-02   0.3868775418E-03   0.0000000000E+00   0.0000000000E+00   0.1174634524E+01  -0.4432631230E-01   0.0000000000E+00  -0.4206869549E-01
   0.3308018608E-01   0.8962680259E-02   0.1913617678E-02   0.4103059394E-03   0.0000000000E+00   0.0000000000E+00   0.1117595008E+01  -0.5381421455E-01   0.0000000000E+00  -0.1143003595E+00
   0.3577031303E-01   0.1137770016E-01   0.1919885331E-02   0.4190956592E-03   0.0000000000E+00   0.0000000000E+00   0.1085215566E+01  -0.6684772345E-01   0.0000000000E+00  -0.7602107690E-01
   0.5085359363E-01   0.6045840459E-02   0.2100142029E-02   0.5464020787E-03   0.0000000000E+00   0.0000000000E+00   0.8561892846E+00  -0.9382381019E-01   0.0000000000E+00  -0.1117798847E+00
   0.4700784858E-01   0.8920047845E-02   0.2045367877E-02   0.5092680846E-03   0.0000000000E+00   0.0000000000E+00   0.9215525935E+00  -0.9328228991E-01   0.0000000000E+00  -0.9126252698E-01
   0.4680070096E-01   0.4616690932E-02   0.2078345061E-02   0.5262709615E-03   0.0000000000E+00   0.0000000000E+00   0.8795553081E+00  -0.7940190344E-01   0.0000000000E+00  -0.1407072246E+00
   0.3958905075E-01   0.1937734043E-02   0.2041447547E-02   0.4886964628E-03   0.0000000000E+00   0.0000000000E+00   0.9225972584E+00  -0.4750509570E-01   0.0000000000E+00  -0.2046845825E+00
   0.4191763910E-01   0.1166142202E-03   0.2078110599E-02   0.5116519192E-03   0.0000000000E+00   0.0000000000E+00   0.8670863836E+00  -0.4404175905E-01   0.0000000000E+00  -0.2067225482E+00
  -0.2404749437E-01   0.5865201811E-01   0.1341905035E-02   0.2121673138E-03   0.0000000000E+00   0.0000000000E+00   0.7806904131E+00   0.1123402772E+00   0.0000000000E+00  -0.1701923889E+00
  -0.3795935034E-01   0.6803204436E-01   0.1267207762E-02   0.2476679574E-03   0.0000000000E+00   0.0000000000E+00   0.7498601013E+00   0.3709888116E-01   0.0000000000E+00  -0.1775628296E+00
  -0.3568318602E-01   0.5426436275E-01   0.1251148779E-02   0.2734808473E-03   0.0000000000E+00   0.0000000000E+00   0.8609565429E+00   0.6460824379E-01   0.0000000000E+00  -0.2149950956E+00
  -0.3100453444E-01   0.6334090502E-01   0.1303444263E-02   0.2287951183E-03   0.0000000000E+00   0.0000000000E+00   0.7627299852E+00   0.7321472926E-01   0.0000000000E+00  -0.1731860171E+00
  -0.3682148050E-01   0.6114800955E-01   0.1258965903E-02   0.2603822529E-03   0.0000000000E+00   0.0000000000E+00   0.8053502009E+00   0.4913231728E-01   0.0000000000E+00  -0.1958963604E+00
  -0.2986345122E-01   0.5645555004E-01   0.1298415884E-02   0.2401818371E-03   0.0000000000E+00   0.0000000000E+00   0.8224070687E+00   0.8857532962E-01   0.0000000000E+00  -0.1930554812E+00
  -0.4855523101E-01   0.8422473710E-01   0.1245995692E-02   0.2555911022E-03   0.0000000000E+00   0.0000000000E+00   0.6814307034E+00   0.4358567643E-02   0.0000000000E+00  -0.1138721601E+00
  -0.2891323083E-01   0.8399680950E-01   0.1356580065E-02   0.1751625956E-03   0.0000000000E+00   0.0000000000E+00   0.5789228123E+00   0.1711599533E-01   0.0000000000E+00  -0.8770392875E-01
  -0.3864359469E-01   0.1001763889E+00   0.1356404413E-02   0.1763878904E-03   0.0000000000E+00   0.0000000000E+00   0.5003124077E+00  -0.1155761818E-02   0.0000000000E+00  -0.4689821785E-02
  -0.3873184235E-01   0.8410687778E-01   0.1303677353E-02   0.2114775810E-03   0.0000000000E+00   0.0000000000E+00   0.6281038654E+00   0.9675943590E-02   0.0000000000E+00  -0.1038706503E+00
  -0.3378234334E-01   0.9208572643E-01   0.1352560762E-02   0.1749022272E-03   0.0000000000E+00   0.0000000000E+00   0.5401175474E+00   0.5324221789E-02   0.0000000000E+00  -0.4704846389E-01
  -0.4359801355E-01   0.9219787856E-01   0.1302597448E-02   0.2133085571E-03   0.0000000000E+00   0.0000000000E+00   0.5936495321E+00   0.3848958065E-02   0.0000000000E+00  -0.5706372783E-01
  -0.1400677063E-01   0.2043552320E-01   0.1353933074E-02   0.2309083951E-03   0.0000000000E+00   0.0000000000E+00   0.1354467926E+01   0.3758829820E+00   0.0000000000E+00  -0.2533436236E+00
   0.4833080679E-01  -0.3937580014E-02   0.2164021687E-02   0.5678438162E-03   0.0000000000E+00   0.0000000000E+00   0.7691820710E+00  -0.3775934724E-01   0.0000000000E+00  -0.1984151958E+00
   0.5216587664E-01  -0.7092249617E-02   0.2218056037E-02   0.6017852227E-03   0.0000000000E+00   0.0000000000E+00   0.7129188209E+00  -0.2973687327E-01   0.0000000000E+00  -0.1889638520E+00
   0.4812747523E-01  -0.8652873736E-02   0.2205657835E-02   0.5807686337E-03   0.0000000000E+00   0.0000000000E+00   0.7064379159E+00  -0.3880511711E-02   0.0000000000E+00  -0.2219153749E+00
   0.3992766283E-01  -0.4150050544E-01   0.2521732330E-02   0.5411911581E-03   0.0000000000E+00   0.0000000000E+00   0.1762090161E+00   0.1270916978E+00   0.0000000000E+00  -0.1100275198E+00
   0.5120552211E-01  -0.3636403796E-01   0.2489669910E-02   0.6380822364E-03   0.0000000000E+00   0.0000000000E+00   0.3172489673E+00   0.1111755023E+00   0.0000000000E+00  -0.1649900190E+00
   0.5197534550E-01  -0.3192431747E-01   0.2448542300E-02   0.6423789327E-03   0.0000000000E+00   0.0000000000E+00   0.3809912210E+00   0.9920694408E-01   0.0000000000E+00  -0.1853912684E+00
   0.4864395850E-01  -0.2863890735E-01   0.2405085302E-02   0.6160730460E-03   0.0000000000E+00   0.0000000000E+00   0.4116750396E+00   0.1092164804E+00   0.0000000000E+00  -0.2087880112E+00
   0.4787597842E-01  -0.3307865273E-01   0.2448056221E-02   0.6117513695E-03   0.0000000000E+00   0.0000000000E+00   0.3394941371E+00   0.1188017888E+00   0.0000000000E+00  -0.1859502843E+00
   0.5128624061E-02   0.1536730136E-01   0.1534223231E-02   0.1635581585E-03   0.0000000000E+00   0.0000000000E+00   0.1453475934E+01   0.9072461328E+00   0.0000000000E+00   0.1525644072E+00
   0.5816382921E-02   0.1289772307E-01   0.1544042121E-02   0.1598407728E-03   0.0000000000E+00   0.0000000000E+00   0.1613865541E+01   0.9539999429E+00   0.0000000000E+00   0.2291426487E+00
   0.7499146400E-02   0.1502628010E-01   0.1558546100E-02   0.1722028975E-03   0.0000000000E+00   0.0000000000E+00   0.1534693794E+01   0.8351925264E+00   0.0000000000E+00   0.2674712755E+00
   0.1468505455E-01   0.1978721498E-01   0.1623242450E-02   0.2158603809E-03   0.0000000000E+00   0.0000000000E+00   0.1390134019E+01   0.4671449898E+00   0.0000000000E+00   0.2790656259E+00
   0.3935879648E-02   0.1774041992E-01   0.1521647998E-02   0.1665045241E-03   0.0000000000E+00   0.0000000000E+00   0.1349157284E+01   0.8092383266E+00   0.0000000000E+00   0.9061736227E-01
   0.4180833345E-01   0.2132386047E-01   0.1907408449E-02   0.4154730699E-03   0.0000000000E+00   0.0000000000E+00   0.1057584699E+01  -0.7419140517E-01   0.0000000000E+00   0.5908715491E-01
   0.3847867202E-01   0.1825955757E-01   0.1894585324E-02   0.4059473680E-03   0.0000000000E+00   0.0000000000E+00   0.1099062855E+01  -0.6393498506E-01   0.0000000000E+00   0.2886536128E-01
   0.3915596821E-01   0.1349431836E-01   0.1936585410E-02   0.4338407579E-03   0.0000000000E+00   0.0000000000E+00   0.1057662956E+01  -0.7705833366E-01   0.0000000000E+00  -0.3898177179E-01
   0.4248243772E-01   0.1655822689E-01   0.1946220324E-02   0.4429730925E-03   0.0000000000E+00   0.0000000000E+00   0.1021182821E+01  -0.8754188015E-01   0.0000000000E+00  -0.7531328204E-02
   0.2395978422E-01   0.1718406700E-01   0.1742734017E-02   0.2961339958E-03   0.0000000000E+00   0.0000000000E+00   0.1361121908E+01   0.1312077598E+00   0.0000000000E+00   0.1516061127E+00
   0.1857008525E+00   0.3122496536E-01   0.2891976477E-02   0.9789105592E-03   0.0000000000E+00   0.0000000000E+00   0.6815123260E+00  -0.2250859864E-01   0.0000000000E+00   0.6607012891E-02
   0.1862382275E+00   0.1107571136E-01   0.2910984534E-02   0.1033674464E-02   0.0000000000E+00   0.0000000000E+00   0.5755402413E+00  -0.2875553444E-01   0.0000000000E+00   0.3595852887E-02
   0.2030000030E+00   0.2101485823E-01   0.3000000000E-02   0.1014858629E-02   0.0000000000E+00   0.0000000000E+00   0.6259865671E+00  -0.2369458462E-01   0.0000000000E+00   0.9756227169E-04
   0.1859697356E+00   0.2115124214E-01   0.2901668614E-02   0.1007196744E-02   0.0000000000E+00   0.0000000000E+00   0.6280799656E+00  -0.2650623433E-01   0.0000000000E+00   0.5245343732E-02
   0.1946172436E+00   0.1604716756E-01   0.2953620606E-02   0.1026148862E-02   0.0000000000E+00   0.0000000000E+00   0.6008675950E+00  -0.2572290251E-01   0.0000000000E+00   0.2263693199E-02
   0.1943525435E+00   0.2612211171E-01   0.2948111548E-02   0.9990855133E-03   0.0000000000E+00   0.0000000000E+00   0.6540865637E+00  -0.2255387379E-01   0.0000000000E+00   0.2793821484E-02
   0.4475131587E-01  -0.1121394656E-01   0.2209141366E-02   0.5650618371E-03   0.0000000000E+00   0.0000000000E+00   0.6832387301E+00   0.2712840754E-01   0.0000000000E+00  -0.2562716108E+00
   0.4495113272E-01  -0.6496840174E-02   0.2163994322E-02   0.5539501857E-03   0.0000000000E+00   0.0000000000E+00   0.7545185748E+00  -0.3442939549E-02   0.0000000000E+00  -0.2354808178E+00
   0.5255542928E-01   0.1753017084E-01   0.2032349380E-02   0.5066372350E-03   0.0000000000E+00   0.0000000000E+00   0.9244186036E+00  -0.1164042436E+00   0.0000000000E+00  -0.5035194480E-02
   0.4785728560E-01   0.1466171126E-01   0.2009988901E-02   0.4888843637E-03   0.0000000000E+00   0.0000000000E+00   0.9569684108E+00  -0.1051303093E+00   0.0000000000E+00  -0.3528826365E-01
   0.5170262648E-01   0.1178864373E-01   0.2064362579E-02   0.5271582306E-03   0.0000000000E+00   0.0000000000E+00   0.8905944091E+00  -0.1065574905E+00   0.0000000000E+00  -0.5802264804E-01
  -0.2665114086E-01   0.4516477090E-01   0.1300949043E-02   0.2518290971E-03   0.0000000000E+00   0.0000000000E+00   0.9332801644E+00   0.1463054653E+00   0.0000000000E+00  -0.2269998360E+00
  -0.2505862876E-01   0.3965220763E-01   0.1302283443E-02   0.2566666288E-03   0.0000000000E+00   0.0000000000E+00   0.1002744909E+01   0.1659589395E+00   0.0000000000E+00  -0.2350419175E+00
  -0.2008690489E-01   0.3707590336E-01   0.1338390713E-02   0.2371334643E-03   0.0000000000E+00   0.0000000000E+00   0.1016370192E+01   0.2321938331E+00   0.0000000000E+00  -0.2213173725E+00
  -0.2168126418E-01   0.4259039960E-01   0.1335207221E-02   0.2342289000E-03   0.0000000000E+00   0.0000000000E+00   0.9456627502E+00   0.2048907142E+00   0.0000000000E+00  -0.2139965995E+00
   0.4691243017E-02   0.2302143875E-01   0.1526014027E-02   0.1768783535E-03   0.0000000000E+00   0.0000000000E+00   0.1183818789E+01   0.6578610912E+00   0.0000000000E+00   0.8617768642E-01
   0.1279431019E-02   0.2325844773E-01   0.1498222441E-02   0.1748875333E-03   0.0000000000E+00   0.0000000000E+00   0.1179417104E+01   0.6507545033E+00   0.0000000000E+00  -0.5994614260E-02
  -0.5356140728E-03   0.2074713889E-01   0.1482890467E-02   0.1719134887E-03   0.0000000000E+00   0.0000000000E+00   0.1243572817E+01   0.7307610083E+00   0.0000000000E+00  -0.5316354788E-01
   0.2877131765E-02   0.2050711936E-01   0.1511615775E-02   0.1708937641E-03   0.0000000000E+00   0.0000000000E+00   0.1252839293E+01   0.7462151959E+00   0.0000000000E+00   0.3563643589E-01
  -0.2002993060E-02   0.1779012096E-01   0.1468711610E-02   0.1687453584E-03   0.0000000000E+00   0.0000000000E+00   0.1356280209E+01   0.7916760635E+00   0.0000000000E+00  -0.1284707595E+00
   0.2587233510E-01   0.2041249057E-01   0.1745000700E-02   0.2988249686E-03   0.0000000000E+00   0.0000000000E+00   0.1278491759E+01   0.1172066874E+00   0.0000000000E+00   0.1650504559E+00
   0.7359172945E-02   0.2595606398E-01   0.1546335665E-02   0.1847943823E-03   0.0000000000E+00   0.0000000000E+00   0.1133992976E+01   0.5710306485E+00   0.0000000000E+00   0.1251185924E+00
   0.7433242795E-02   0.2240075538E-01   0.1549409865E-02   0.1819840795E-03   0.0000000000E+00   0.0000000000E+00   0.1229780765E+01   0.6277396135E+00   0.0000000000E+00   0.1521017707E+00
   0.1010097388E-01   0.2533764318E-01   0.1569532896E-02   0.1921646782E-03   0.0000000000E+00   0.0000000000E+00   0.1173624519E+01   0.5332893180E+00   0.0000000000E+00   0.1868466270E+00
  -0.4873733569E-02   0.3053974535E-01   0.1452109711E-02   0.1879277526E-03   0.0000000000E+00   0.0000000000E+00   0.1046240849E+01   0.4789307909E+00   0.0000000000E+00  -0.1159441602E+00
   0.2135384154E-02   0.2853895627E-01   0.1504778421E-02   0.1804446676E-03   0.0000000000E+00   0.0000000000E+00   0.1066993741E+01   0.5366218562E+00   0.0000000000E+00   0.1230117853E-01
  -0.3503215056E-02   0.2702095011E-01   0.1461112384E-02   0.1837613143E-03   0.0000000000E+00   0.0000000000E+00   0.1102955044E+01   0.5478626518E+00   0.0000000000E+00  -0.1012062138E+00
   0.2192443889E-05   0.2601918206E-01   0.1488295494E-02   0.1786462588E-03   0.0000000000E+00   0.0000000000E+00   0.1121381097E+01   0.5957556715E+00   0.0000000000E+00  -0.3915019010E-01
  -0.1369251541E-02   0.2953761210E-01   0.1478367349E-02   0.1824474989E-03   0.0000000000E+00   0.0000000000E+00   0.1058741474E+01   0.5120237335E+00   0.0000000000E+00  -0.5689754161E-01
  -0.2930545768E-01   0.1769807794E-01   0.1166167121E-02   0.3618248370E-03   0.0000000000E+00   0.0000000000E+00   0.1189775430E+01  -0.1254675058E-01   0.0000000000E+00  -0.6229759433E-01
  -0.2718640639E-01   0.2209954832E-01   0.1217304209E-02   0.3255916189E-03   0.0000000000E+00   0.0000000000E+00   0.1226527229E+01   0.5616832088E-01   0.0000000000E+00  -0.1532149693E+00
  -0.3138099533E-01   0.2159942160E-01   0.1169756873E-02   0.3596863981E-03   0.0000000000E+00   0.0000000000E+00   0.1146000815E+01  -0.8247193756E-02   0.0000000000E+00  -0.1002473657E+00
  -0.2686170926E-01   0.1442505919E-01   0.1168507438E-02   0.3580826917E-03   0.0000000000E+00   0.0000000000E+00   0.1224204409E+01  -0.1186348147E-01   0.0000000000E+00  -0.7313684199E-02
   0.3010166680E-01   0.2012529128E-01   0.1793586295E-02   0.3334050796E-03   0.0000000000E+00   0.0000000000E+00   0.1236054917E+01   0.3434664080E-01   0.0000000000E+00   0.1209246483E+00
   0.3135863860E-01   0.1609665056E-01   0.1835161603E-02   0.3620059647E-03   0.0000000000E+00   0.0000000000E+00   0.1208497718E+01  -0.1113149562E-01   0.0000000000E+00   0.4088197143E-01
   0.3389223712E-01   0.1922300606E-01   0.1840379523E-02   0.3669313552E-03   0.0000000000E+00   0.0000000000E+00   0.1156306149E+01  -0.2035578205E-01   0.0000000000E+00   0.6801509615E-01
   0.2391011389E-01   0.4013115270E-01   0.1662901894E-02   0.2354393982E-03   0.0000000000E+00   0.0000000000E+00   0.9787993159E+00   0.2176528283E+00   0.0000000000E+00   0.2241775579E+00
   0.1959783004E-01   0.3088124274E-01   0.1643674244E-02   0.2301762407E-03   0.0000000000E+00   0.0000000000E+00   0.1112277329E+01   0.3180821675E+00   0.0000000000E+00   0.2445645870E+00
   0.1891706721E-01   0.3915488362E-01   0.1625078008E-02   0.2160707205E-03   0.0000000000E+00   0.0000000000E+00   0.9731284016E+00   0.2775451538E+00   0.0000000000E+00   0.1973174661E+00
   0.1675938617E-01   0.3452959406E-01   0.1613926072E-02   0.2131064571E-03   0.0000000000E+00   0.0000000000E+00   0.1032598379E+01   0.3324417038E+00   0.0000000000E+00   0.2005240639E+00
   0.2175408515E-01   0.3550688744E-01   0.1653402150E-02   0.2334994447E-03   0.0000000000E+00   0.0000000000E+00   0.1038261971E+01   0.2579037959E+00   0.0000000000E+00   0.2284706537E+00
   0.6192688518E-01   0.6813419865E-01   0.1880625880E-02   0.3585021496E-03   0.0000000000E+00   0.0000000000E+00   0.8136613102E+00  -0.1758227296E-01   0.0000000000E+00   0.1740065679E+00
   0.8161361786E-01   0.6866296767E-01   0.2028646757E-02   0.4728996683E-03   0.0000000000E+00   0.0000000000E+00   0.8421467258E+00  -0.4155404007E-01   0.0000000000E+00   0.1328604729E+00
   0.7181524807E-01   0.8425954971E-01   0.1889038372E-02   0.3632033086E-03   0.0000000000E+00   0.0000000000E+00   0.7870558478E+00  -0.8149830341E-02   0.0000000000E+00   0.1062737362E+00
   0.7176944449E-01   0.6839839675E-01   0.1953831194E-02   0.4155144465E-03   0.0000000000E+00   0.0000000000E+00   0.8289024362E+00  -0.3026153560E-01   0.0000000000E+00   0.1546230400E+00
   0.7671387260E-01   0.7645994666E-01   0.1958278501E-02   0.4167431554E-03   0.0000000000E+00   0.0000000000E+00   0.8147488594E+00  -0.2357930065E-01   0.0000000000E+00   0.1204800933E+00
   0.6687286556E-01   0.7619667840E-01   0.1886629156E-02   0.3606607042E-03   0.0000000000E+00   0.0000000000E+00   0.7986159647E+00  -0.1596298559E-01   0.0000000000E+00   0.1389308076E+00
   0.4471053389E-01  -0.3445624663E-02   0.2133241088E-02   0.5428257274E-03   0.0000000000E+00   0.0000000000E+00   0.7975732177E+00  -0.2954501818E-01   0.0000000000E+00  -0.2180164010E+00
   0.4554036698E-01  -0.3744998701E-03   0.2111342483E-02   0.5375111489E-03   0.0000000000E+00   0.0000000000E+00   0.8363950160E+00  -0.5027694328E-01   0.0000000000E+00  -0.1874823121E+00
   0.4959043060E-01   0.1055194063E-02   0.2130314196E-02   0.5581867857E-03   0.0000000000E+00   0.0000000000E+00   0.8127361638E+00  -0.6834871228E-01   0.0000000000E+00  -0.1555043442E+00
   0.5750301681E-02   0.2025713839E-01   0.1536357141E-02   0.1748881940E-03   0.0000000000E+00   0.0000000000E+00   0.1280204091E+01   0.7229476585E+00   0.0000000000E+00   0.1406848934E+00
  -0.7780634477E-02   0.2688363593E-01   0.1426263103E-02   0.1948590275E-03   0.0000000000E+00   0.0000000000E+00   0.1145399438E+01   0.5023913690E+00   0.0000000000E+00  -0.1825117709E+00
  -0.1004490455E-01   0.6386123543E-01   0.1433836153E-02   0.1668030279E-03   0.0000000000E+00   0.0000000000E+00   0.6917041480E+00   0.1177988832E+00   0.0000000000E+00  -0.7622785641E-01
   0.7222576107E-03   0.5472776215E-01   0.1495197606E-02   0.1702747547E-03   0.0000000000E+00   0.0000000000E+00   0.7582556913E+00   0.1953404393E+00   0.0000000000E+00  -0.7334104014E-02
   0.5299312311E-02   0.6788612011E-01   0.1520789011E-02   0.1523704111E-03   0.0000000000E+00   0.0000000000E+00   0.6464699255E+00   0.9792950529E-01   0.0000000000E+00   0.2256416064E-01
  -0.4662362500E-02   0.5929307338E-01   0.1463477860E-02   0.1671134812E-03   0.0000000000E+00   0.0000000000E+00   0.7270916365E+00   0.1598844451E+00   0.0000000000E+00  -0.4333860875E-01
   0.3011583332E-02   0.6130726729E-01   0.1508791682E-02   0.1616486929E-03   0.0000000000E+00   0.0000000000E+00   0.7015363911E+00   0.1435170814E+00   0.0000000000E+00   0.8593804427E-02
  -0.2371717439E-02   0.6586972405E-01   0.1478391271E-02   0.1556329458E-03   0.0000000000E+00   0.0000000000E+00   0.6662616340E+00   0.1080036580E+00   0.0000000000E+00  -0.2510586406E-01
   0.2030000030E+00   0.1064445959E-02   0.3000000000E-02   0.1064445959E-02   0.0000000000E+00   0.0000000000E+00   0.5227658601E+00  -0.2792753988E-01   0.0000000000E+00   0.4429560871E-04
   0.1947229110E+00  -0.3852511279E-02   0.2961700006E-02   0.1073967211E-02   0.0000000000E+00   0.0000000000E+00   0.4992086216E+00  -0.2865449221E-01   0.0000000000E+00   0.2609445015E-03
   0.1946210865E+00   0.6072040915E-02   0.2957463523E-02   0.1051022475E-02   0.0000000000E+00   0.0000000000E+00   0.5494265016E+00  -0.2775259756E-01   0.0000000000E+00   0.1225110449E-02
   0.1863438865E+00   0.1152337392E-02   0.2919056520E-02   0.1057797440E-02   0.0000000000E+00   0.0000000000E+00   0.5249522082E+00  -0.3060488166E-01   0.0000000000E+00   0.1574195106E-02
   0.1322597373E-01   0.2247188185E-01   0.1601948526E-02   0.2055218548E-03   0.0000000000E+00   0.0000000000E+00   0.1280712809E+01   0.5212821111E+00   0.0000000000E+00   0.2551105837E+00
   0.1314817854E-01   0.2602291181E-01   0.1595149943E-02   0.2040535094E-03   0.0000000000E+00   0.0000000000E+00   0.1182000019E+01   0.4676383779E+00   0.0000000000E+00   0.2163888679E+00
   0.1252307559E-01   0.8347604444E-01   0.1550029991E-02   0.1316817354E-03   0.0000000000E+00   0.0000000000E+00   0.5171187641E+00   0.2453370388E-01   0.0000000000E+00   0.3572500177E-01
   0.3194776417E-01   0.8355479759E-01   0.1644593269E-02   0.1761771904E-03   0.0000000000E+00   0.0000000000E+00   0.5831648763E+00   0.1808618940E-01   0.0000000000E+00   0.9057868261E-01
   0.2156433317E-01   0.1001184269E+00   0.1564333571E-02   0.1184259376E-03   0.0000000000E+00   0.0000000000E+00   0.3809593739E+00  -0.3303753284E-02   0.0000000000E+00   0.2223133116E-02
   0.2223389671E-01   0.8351038346E-01   0.1595788410E-02   0.1488918573E-03   0.0000000000E+00   0.0000000000E+00   0.5439905089E+00   0.1788801016E-01   0.0000000000E+00   0.6460987336E-01
   0.2675341732E-01   0.9183367906E-01   0.1601833020E-02   0.1443680563E-03   0.0000000000E+00   0.0000000000E+00   0.4865548873E+00   0.9208061496E-02   0.0000000000E+00   0.4221921650E-01
   0.1704746458E-01   0.9179579578E-01   0.1560941979E-02   0.1236136767E-03   0.0000000000E+00   0.0000000000E+00   0.4528823252E+00   0.9651116381E-02   0.0000000000E+00   0.2182303312E-01
   0.1793668458E-01   0.2702217428E-01   0.1636799782E-02   0.2267720779E-03   0.0000000000E+00   0.0000000000E+00   0.1187040670E+01   0.3578647890E+00   0.0000000000E+00   0.2511895686E+00
   0.2188812351E-01   0.2735338054E-01   0.1673562111E-02   0.2494088378E-03   0.0000000000E+00   0.0000000000E+00   0.1185720647E+01   0.2675872651E+00   0.0000000000E+00   0.2435080103E+00
   0.3907581178E-01   0.3121995909E-01   0.1826295078E-02   0.3521235857E-03   0.0000000000E+00   0.0000000000E+00   0.1065752117E+01   0.4918908387E-02   0.0000000000E+00   0.1799424556E+00
   0.3585689912E-01   0.2723655443E-01   0.1813911124E-02   0.3459785300E-03   0.0000000000E+00   0.0000000000E+00   0.1121067040E+01   0.1410647174E-01   0.0000000000E+00   0.1627732154E+00
   0.3722407793E-01   0.2228853944E-01   0.1855385833E-02   0.3776876366E-03   0.0000000000E+00   0.0000000000E+00   0.1117245456E+01  -0.2560669711E-01   0.0000000000E+00   0.1014265685E+00
   0.4043973910E-01   0.2627097462E-01   0.1864518200E-02   0.3828632189E-03   0.0000000000E+00   0.0000000000E+00   0.1063362970E+01  -0.3638140817E-01   0.0000000000E+00   0.1192130277E+00
   0.2030000030E+00   0.4095810779E-01   0.3000000000E-02   0.9581086879E-03   0.0000000000E+00   0.0000000000E+00   0.7341161717E+00  -0.1626061430E-01   0.0000000000E+00   0.1369163783E-03
   0.1943484473E+00   0.3609365613E-01   0.2944015272E-02   0.9706282321E-03   0.0000000000E+00   0.0000000000E+00   0.7078583698E+00  -0.1903796144E-01   0.0000000000E+00   0.3610279825E-02
   0.1938880342E+00   0.4652461203E-01   0.2936448176E-02   0.9387450297E-03   0.0000000000E+00   0.0000000000E+00   0.7656085744E+00  -0.1450572571E-01   0.0000000000E+00   0.3488590107E-02
   0.1852362702E+00   0.4165644296E-01   0.2880255242E-02   0.9475471619E-03   0.0000000000E+00   0.0000000000E+00   0.7386137585E+00  -0.1860327168E-01   0.0000000000E+00   0.7338486599E-02
   0.6080501013E-02   0.2871237492E-01   0.1534975363E-02   0.1841297151E-03   0.0000000000E+00   0.0000000000E+00   0.1079399308E+01   0.5150865080E+00   0.0000000000E+00   0.9022096298E-01
   0.3412931301E-02   0.2578024534E-01   0.1515013941E-02   0.1787093356E-03   0.0000000000E+00   0.0000000000E+00   0.1126273738E+01   0.5964541999E+00   0.0000000000E+00   0.5030870254E-01
  -0.9062100107E-03   0.3360327909E-01   0.1482603059E-02   0.1834464858E-03   0.0000000000E+00   0.0000000000E+00   0.9959621715E+00   0.4453985223E+00   0.0000000000E+00  -0.3960922238E-01
   0.2597401578E-02   0.3260570709E-01   0.1507990258E-02   0.1825237942E-03   0.0000000000E+00   0.0000000000E+00   0.9986913078E+00   0.4575917841E+00   0.0000000000E+00   0.1756240247E-01
   0.5178287306E-01   0.8368859166E-01   0.1757253459E-02   0.2580928615E-03   0.0000000000E+00   0.0000000000E+00   0.6863550241E+00   0.4250497415E-02   0.0000000000E+00   0.1173116554E+00
   0.4164361327E-01   0.1001763900E+00   0.1643614167E-02   0.1763889514E-03   0.0000000000E+00   0.0000000000E+00   0.5003341491E+00  -0.1213665203E-02   0.0000000000E+00   0.5062262714E-02
   0.4671178356E-01   0.9192965363E-01   0.1698974256E-02   0.2144072314E-03   0.0000000000E+00   0.0000000000E+00   0.5963856985E+00   0.3938332603E-02   0.0000000000E+00   0.5872123052E-01
   0.3679975386E-01   0.9186472970E-01   0.1648167962E-02   0.1754186979E-03   0.0000000000E+00   0.0000000000E+00   0.5419042997E+00   0.5728700198E-02   0.0000000000E+00   0.4821808836E-01
   0.4186285364E-01   0.8361771274E-01   0.1698457438E-02   0.2131568413E-03   0.0000000000E+00   0.0000000000E+00   0.6323169095E+00   0.1033859963E-01   0.0000000000E+00   0.1071699292E+00
   0.2428118918E-01   0.3125004263E-01   0.1685135382E-02   0.2552045267E-03   0.0000000000E+00   0.0000000000E+00   0.1121221449E+01   0.2372682705E+00   0.0000000000E+00   0.2486448580E+00
   0.1481135310E-01   0.2988367472E-01   0.1604052498E-02   0.2091521161E-03   0.0000000000E+00   0.0000000000E+00   0.1108978108E+01   0.4082173932E+00   0.0000000000E+00   0.2139364260E+00
  -0.6228203464E-02   0.3478562426E-01   0.1444145526E-02   0.1906339613E-03   0.0000000000E+00   0.0000000000E+00   0.9828656717E+00   0.3983184501E+00   0.0000000000E+00  -0.1127123379E+00
  -0.2261544915E-02   0.3784731002E-01   0.1473773865E-02   0.1843047225E-03   0.0000000000E+00   0.0000000000E+00   0.9390517976E+00   0.3741075570E+00   0.0000000000E+00  -0.5274501684E-01
  -0.9418802761E-02   0.3134270774E-01   0.1417236939E-02   0.1997353375E-03   0.0000000000E+00   0.0000000000E+00   0.1065177086E+01   0.4233832872E+00   0.0000000000E+00  -0.1782319953E+00
  -0.8443535881E-02   0.8141101052E-01   0.1453493149E-02   0.1340275172E-03   0.0000000000E+00   0.0000000000E+00   0.5340623850E+00   0.3091983110E-01   0.0000000000E+00  -0.3679883675E-01
  -0.1856440464E-01   0.1001184114E+00   0.1435594962E-02   0.1184103939E-03   0.0000000000E+00   0.0000000000E+00   0.3804307873E+00  -0.3804799986E-02   0.0000000000E+00  -0.2996585846E-02
  -0.1350854279E-01   0.9076300287E-01   0.1439971506E-02   0.1245143676E-03   0.0000000000E+00   0.0000000000E+00   0.4614008154E+00   0.1266828478E-01   0.0000000000E+00  -0.2349685224E-01
  -0.2373616824E-01   0.9205473787E-01   0.1398737958E-02   0.1439136662E-03   0.0000000000E+00   0.0000000000E+00   0.4845877506E+00   0.8233822129E-02   0.0000000000E+00  -0.4184590516E-01
  -0.1867769587E-01   0.8269846705E-01   0.1405724134E-02   0.1491483454E-03   0.0000000000E+00   0.0000000000E+00   0.5499456084E+00   0.2163149837E-01   0.0000000000E+00  -0.6449296220E-01
   0.4652524420E-01  -0.3722537349E-01   0.2487455101E-02   0.6008591132E-03   0.0000000000E+00   0.0000000000E+00   0.2771167537E+00   0.1264916267E+00   0.0000000000E+00  -0.1566788961E+00
   0.5869362004E-01  -0.5403036782E-01   0.2666852144E-02   0.6960800812E-03   0.0000000000E+00   0.0000000000E+00   0.1694405011E+00   0.7649651571E-01   0.0000000000E+00  -0.7696882102E-01
   0.6161699199E-01  -0.4206878177E-01   0.2568249887E-02   0.7158495307E-03   0.0000000000E+00   0.0000000000E+00   0.2999284602E+00   0.7606513111E-01   0.0000000000E+00  -0.1310568654E+00
   0.4808611754E-01  -0.4718260092E-01   0.2589892138E-02   0.6113499831E-03   0.0000000000E+00   0.0000000000E+00   0.1751657968E+00   0.1074973295E+00   0.0000000000E+00  -0.9228088295E-01
   0.6015474294E-01  -0.4804854722E-01   0.2616986042E-02   0.7069941751E-03   0.0000000000E+00   0.0000000000E+00   0.2344352565E+00   0.7850853518E-01   0.0000000000E+00  -0.1059052574E+00
   0.5484874755E-01  -0.4462249608E-01   0.2576263850E-02   0.6667968211E-03   0.0000000000E+00   0.0000000000E+00   0.2400408008E+00   0.9381496609E-01   0.0000000000E+00  -0.1147481608E+00
   0.5339067905E-01  -0.5060564869E-01   0.2629180547E-02   0.6545507076E-03   0.0000000000E+00   0.0000000000E+00   0.1730336870E+00   0.9206115353E-01   0.0000000000E+00  -0.8518202114E-01
   0.4496825761E-01  -0.4263606195E-01   0.2540281910E-02   0.5860860458E-03   0.0000000000E+00   0.0000000000E+00   0.1973458073E+00   0.1184366674E+00   0.0000000000E+00  -0.1138231089E+00
   0.4304687470E-01  -0.4604608739E-01   0.2572698296E-02   0.5674121083E-03   0.0000000000E+00   0.0000000000E+00   0.1552874799E+00   0.1121186384E+00   0.0000000000E+00  -0.8530869263E-01
   0.9783481441E-01  -0.9116830219E-01   0.2952639107E-02   0.9489627075E-03   0.0000000000E+00   0.0000000000E+00  -0.3666234308E-01   0.7036710805E-03   0.0000000000E+00  -0.1811011126E-01
   0.1026276559E+00  -0.8314421248E-01   0.2909964426E-02   0.9730734198E-03   0.0000000000E+00   0.0000000000E+00   0.3571068492E-01   0.1322240294E-02   0.0000000000E+00  -0.3714297027E-01
   0.8188443150E-01   0.1003682720E+00   0.1884433301E-02   0.3682710218E-03   0.0000000000E+00   0.0000000000E+00   0.8215703283E+00   0.1535457501E-02   0.0000000000E+00   0.4615367411E-02
   0.6174907104E-01   0.1002642227E+00   0.1749072338E-02   0.2642217454E-03   0.0000000000E+00   0.0000000000E+00   0.6634868430E+00   0.6683739844E-03   0.0000000000E+00   0.6011409438E-02
   0.7685158579E-01   0.9231435104E-01   0.1888478094E-02   0.3661771446E-03   0.0000000000E+00   0.0000000000E+00   0.8000766494E+00  -0.4835862957E-02   0.0000000000E+00   0.5350826448E-01
   0.7181333347E-01   0.1003151325E+00   0.1813333174E-02   0.3151315455E-03   0.0000000000E+00   0.0000000000E+00   0.7455635974E+00   0.2051120381E-02   0.0000000000E+00   0.5339829448E-02
   0.6678194686E-01   0.9225989234E-01   0.1818844564E-02   0.3117184357E-03   0.0000000000E+00   0.0000000000E+00   0.7265481631E+00  -0.1852934500E-02   0.0000000000E+00   0.5636250809E-01
  -0.8885699071E-01   0.8439971680E-01   0.9604065861E-03   0.4758852015E-03   0.0000000000E+00   0.0000000000E+00   0.8662629073E+00  -0.1252407446E-01   0.0000000000E+00  -0.7786373149E-01
  -0.7888443808E-01   0.1003682857E+00   0.1115560123E-02   0.3682846738E-03   0.0000000000E+00   0.0000000000E+00   0.8216257940E+00   0.1620589384E-02   0.0000000000E+00  -0.4593516928E-02
  -0.9904535164E-01   0.1004731418E+00   0.9546493580E-03   0.4731407642E-03   0.0000000000E+00   0.0000000000E+00   0.9399202078E+00   0.1592778981E-02   0.0000000000E+00  -0.2616614912E-02
  -0.8387168157E-01   0.9238315996E-01   0.1037012427E-02   0.4212396573E-03   0.0000000000E+00   0.0000000000E+00   0.8438272379E+00  -0.4442354749E-02   0.0000000000E+00  -0.4304185147E-01
  -0.8896236830E-01   0.1004213644E+00   0.1037635296E-02   0.4213633918E-03   0.0000000000E+00   0.0000000000E+00   0.8874223572E+00   0.3011182848E-02   0.0000000000E+00  -0.3683509373E-02
  -0.9395133818E-01   0.9243739497E-01   0.9573612229E-03   0.4754746734E-03   0.0000000000E+00   0.0000000000E+00   0.8996845440E+00  -0.5694840441E-02   0.0000000000E+00  -0.3850719791E-01
  -0.1871564729E-01   0.3314345966E-01   0.1342338307E-02   0.2373259641E-03   0.0000000000E+00   0.0000000000E+00   0.1081021186E+01   0.2795600897E+00   0.0000000000E+00  -0.2401838505E+00
   0.2747446145E-01  -0.4271702686E-01   0.2525648448E-02   0.4147344444E-03   0.0000000000E+00   0.0000000000E+00   0.6356540567E-01   0.7779432062E-01   0.0000000000E+00  -0.3353369083E-01
   0.5418461134E-01  -0.8411462971E-01   0.2920675435E-02   0.6509758858E-03   0.0000000000E+00   0.0000000000E+00  -0.4583183047E-01   0.1209251658E-01   0.0000000000E+00   0.1487192683E-01
   0.4306076691E-01  -0.9945342217E-01   0.3060767814E-02   0.5465788312E-03   0.0000000000E+00   0.0000000000E+00  -0.1067651542E+00  -0.7332394489E-03   0.0000000000E+00   0.5146351110E-02
   0.4568074204E-01  -0.8318784507E-01   0.2915839935E-02   0.5767154330E-03   0.0000000000E+00   0.0000000000E+00  -0.3912480142E-01   0.9198194313E-02   0.0000000000E+00   0.2771022920E-01
   0.4011858842E-01  -0.9085840996E-01   0.2985654723E-02   0.5233485445E-03   0.0000000000E+00   0.0000000000E+00  -0.6843226098E-01   0.3710779574E-02   0.0000000000E+00   0.2236697512E-01
   0.4862069669E-01  -0.9178304092E-01   0.2988729192E-02   0.5997626817E-03   0.0000000000E+00   0.0000000000E+00  -0.7713614535E-01   0.4416272392E-02   0.0000000000E+00   0.1117589891E-01
  -0.5156575235E-01   0.1055857419E-01   0.9028678513E-03   0.5506693873E-03   0.0000000000E+00   0.0000000000E+00   0.8628522324E+00  -0.1104736119E+00   0.0000000000E+00   0.6414092846E-01
  -0.4235148475E-01   0.1463042714E-01   0.1012715949E-02   0.4720664404E-03   0.0000000000E+00   0.0000000000E+00   0.9826720554E+00  -0.1023991016E+00   0.0000000000E+00   0.3371947581E-01
  -0.4942530040E-01   0.2211009700E-01   0.9978486004E-03   0.4845632962E-03   0.0000000000E+00   0.0000000000E+00   0.9465773386E+00  -0.1117668304E+00   0.0000000000E+00  -0.3778721474E-01
  -0.4695990770E-01   0.1259537467E-01   0.9565046997E-03   0.5122418671E-03   0.0000000000E+00   0.0000000000E+00   0.9175414381E+00  -0.1074209552E+00   0.0000000000E+00   0.5008825659E-01
  -0.4588756102E-01   0.1837043594E-01   0.1006113885E-02   0.4784887410E-03   0.0000000000E+00   0.0000000000E+00   0.9693653188E+00  -0.1036512650E+00   0.0000000000E+00  -0.5032029410E-02
  -0.5049432162E-01   0.1633491245E-01   0.9515648760E-03   0.5181941534E-03   0.0000000000E+00   0.0000000000E+00   0.9040221069E+00  -0.1136233970E+00   0.0000000000E+00   0.1560162869E-01
  -0.1090817777E+00   0.8416254731E-01   0.7947882951E-03   0.5826271105E-03   0.0000000000E+00   0.0000000000E+00   0.9185756833E+00  -0.1073324998E-01   0.0000000000E+00  -0.4936311776E-01
  -0.1192237035E+00   0.1005669168E+00   0.7762934658E-03   0.5669157824E-03   0.0000000000E+00   0.0000000000E+00   0.1013357370E+01   0.1282657404E-02   0.0000000000E+00  -0.1134591878E-02
  -0.1141517691E+00   0.9236602576E-01   0.7865119015E-03   0.5760648557E-03   0.0000000000E+00   0.0000000000E+00   0.9638900076E+00  -0.4366083216E-02   0.0000000000E+00  -0.2408509831E-01
  -0.1243340854E+00   0.9211505044E-01   0.6958656175E-03   0.6212203427E-03   0.0000000000E+00   0.0000000000E+00   0.9803009808E+00  -0.3440937451E-02   0.0000000000E+00  -0.1629181914E-01
  -0.1192602285E+00   0.8391451678E-01   0.7080064951E-03   0.6307198753E-03   0.0000000000E+00   0.0000000000E+00   0.9362738802E+00  -0.7692109165E-02   0.0000000000E+00  -0.3818723369E-01
   0.2516710329E-01  -0.4667753969E-01   0.2568512595E-02   0.3880611109E-03   0.0000000000E+00   0.0000000000E+00   0.3765908678E-01   0.3423157955E-01   0.0000000000E+00   0.1543579939E-02
   0.2268012745E-01  -0.4277153758E-01   0.2524470345E-02   0.3619149167E-03   0.0000000000E+00   0.0000000000E+00   0.4041050399E-01   0.3765896058E-01   0.0000000000E+00  -0.1323830514E-01
   0.1143896777E-01  -0.6785964047E-01   0.2776938598E-02   0.2483668260E-03   0.0000000000E+00   0.0000000000E+00  -0.1362632937E-02  -0.6169882458E-01   0.0000000000E+00   0.2851896062E-01
   0.2811141539E-02  -0.7176543604E-01   0.2811141539E-02   0.1661943592E-03   0.0000000000E+00   0.0000000000E+00   0.2849587675E-02  -0.6852359139E-01   0.0000000000E+00   0.6380388697E-02
   0.1151482671E-01  -0.7592469523E-01   0.2852797536E-02   0.2516724747E-03   0.0000000000E+00   0.0000000000E+00  -0.4424925400E-02  -0.3034563019E-01   0.0000000000E+00   0.2812532802E-01
   0.2643523027E-01   0.3587399477E-01   0.1692647472E-02   0.2568332738E-03   0.0000000000E+00   0.0000000000E+00   0.1044348516E+01   0.1914270344E+00   0.0000000000E+00   0.2328979628E+00
   0.8083531172E-02   0.4620965553E-01   0.1543192202E-02   0.1826620338E-03   0.0000000000E+00   0.0000000000E+00   0.8434824749E+00   0.2700399248E+00   0.0000000000E+00   0.6986672140E-01
  -0.1362303366E-02   0.4519642183E-01   0.1481099894E-02   0.1801070277E-03   0.0000000000E+00   0.0000000000E+00   0.8497040875E+00   0.2875349117E+00   0.0000000000E+00  -0.3202159158E-01
   0.3360679472E-02   0.4570097859E-01   0.1512211612E-02   0.1793243862E-03   0.0000000000E+00   0.0000000000E+00   0.8479292106E+00   0.2782742696E+00   0.0000000000E+00   0.2103273533E-01
   0.8479944752E-03   0.4093387650E-01   0.1495587648E-02   0.1817933975E-03   0.0000000000E+00   0.0000000000E+00   0.8961543459E+00   0.3402562549E+00   0.0000000000E+00  -0.4938919942E-02
   0.5571892335E-02   0.4144070110E-01   0.1527614275E-02   0.1832786996E-03   0.0000000000E+00   0.0000000000E+00   0.8911914439E+00   0.3298176455E+00   0.0000000000E+00   0.4622235088E-01
  -0.1831524078E+00  -0.8966109331E-02   0.7419224761E-04   0.1080247969E-02   0.0000000000E+00   0.0000000000E+00   0.4744012321E+00  -0.3056565618E-01   0.0000000000E+00   0.6126606618E-03
  -0.2000000030E+00  -0.1889352040E-01   0.0000000000E+00   0.1106479196E-02   0.0000000000E+00   0.0000000000E+00   0.4235954730E+00  -0.2728401761E-01   0.0000000000E+00   0.8575018980E-05
  -0.1827112984E+00  -0.2913116755E-01   0.6051856843E-04   0.1118787552E-02   0.0000000000E+00   0.0000000000E+00   0.3757975043E+00  -0.2694087261E-01   0.0000000000E+00   0.5186328633E-02
  -0.1915781463E+00  -0.1392795798E-01   0.3515566304E-04   0.1095220417E-02   0.0000000000E+00   0.0000000000E+00   0.4491915434E+00  -0.2835460976E-01   0.0000000000E+00   0.8530875130E-03
  -0.1913537181E+00  -0.2401057802E-01   0.3219188459E-04   0.1114400278E-02   0.0000000000E+00   0.0000000000E+00   0.3999459486E+00  -0.2653351147E-01   0.0000000000E+00   0.2032705677E-02
  -0.1829317625E+00  -0.1904758343E-01   0.6744647078E-04   0.1100572767E-02   0.0000000000E+00   0.0000000000E+00   0.4246395397E+00  -0.2969700305E-01   0.0000000000E+00   0.2931177299E-02
  -0.4087593018E-01  -0.3328224091E-02   0.8740538179E-03   0.5369173291E-03   0.0000000000E+00   0.0000000000E+00   0.8066463696E+00  -0.2992216183E-01   0.0000000000E+00   0.2212983886E+00
  -0.4006072987E-01  -0.9945335942E-01  -0.6073077189E-04   0.5466415782E-03   0.0000000000E+00   0.0000000000E+00  -0.1058325773E+00  -0.1021703300E-02   0.0000000000E+00  -0.6243994421E-02
  -0.4506065008E-01  -0.9045528048E-01   0.2236231526E-04   0.5953741172E-03   0.0000000000E+00   0.0000000000E+00  -0.6859132885E-01   0.6230812765E-02   0.0000000000E+00  -0.1248648503E-01
  -0.3584135468E-01  -0.8985574652E-01   0.2267812375E-04   0.5119208790E-03   0.0000000000E+00   0.0000000000E+00  -0.6304500267E-01   0.3843966228E-02   0.0000000000E+00  -0.2418885209E-01
  -0.4084306360E-01  -0.8085746656E-01   0.1039787995E-03   0.5608539390E-03   0.0000000000E+00   0.0000000000E+00  -0.3030704683E-01   0.1029868283E-01   0.0000000000E+00  -0.3146113478E-01
  -0.3963109320E-01  -0.2793488923E-01   0.6218270050E-03   0.5691396716E-03   0.0000000000E+00   0.0000000000E+00   0.3867991045E+00   0.1379908399E+00   0.0000000000E+00   0.2272388524E+00
  -0.2000000030E+00  -0.3885969688E-01   0.0000000000E+00   0.1140302220E-02   0.0000000000E+00   0.0000000000E+00   0.3276321966E+00  -0.2156981482E-01   0.0000000000E+00   0.1343018051E-03
  -0.1913575833E+00  -0.3399361865E-01   0.2832665356E-04   0.1131357549E-02   0.0000000000E+00   0.0000000000E+00   0.3517583819E+00  -0.2383137426E-01   0.0000000000E+00   0.2993678420E-02
  -0.1909221090E+00  -0.4444419214E-01   0.2554302504E-04   0.1146618361E-02   0.0000000000E+00   0.0000000000E+00   0.3020993752E+00  -0.1943537330E-01   0.0000000000E+00   0.3875202716E-02
  -0.1822797947E+00  -0.3958059485E-01   0.5376430981E-04   0.1135192753E-02   0.0000000000E+00   0.0000000000E+00   0.3254735252E+00  -0.2320905007E-01   0.0000000000E+00   0.7120434501E-02
   0.5676931889E-01   0.9197620322E-01   0.1756511590E-02   0.2609568153E-03   0.0000000000E+00   0.0000000000E+00   0.6716251748E+00  -0.4429633836E-03   0.0000000000E+00   0.6032499903E-01
   0.6179669762E-01   0.8397220608E-01   0.1820782916E-02   0.3087871824E-03   0.0000000000E+00   0.0000000000E+00   0.7373160494E+00  -0.1055339970E-02   0.0000000000E+00   0.1145045565E+00
   0.3476204171E-01   0.4122223091E-01   0.1750437608E-02   0.2894824082E-03   0.0000000000E+00   0.0000000000E+00   0.9869313371E+00   0.9511501582E-01   0.0000000000E+00   0.2336560525E+00
   0.3186393823E-01   0.3642235737E-01   0.1739158432E-02   0.2866763693E-03   0.0000000000E+00   0.0000000000E+00   0.1045694278E+01   0.1147720445E+00   0.0000000000E+00   0.2319050254E+00
   0.3402060189E-01   0.3142014826E-01   0.1776865795E-02   0.3169246571E-03   0.0000000000E+00   0.0000000000E+00   0.1094887168E+01   0.7738604171E-01   0.0000000000E+00   0.2127680109E+00
   0.3691617722E-01   0.3621915270E-01   0.1785616823E-02   0.3188616020E-03   0.0000000000E+00   0.0000000000E+00   0.1028184372E+01   0.5393144709E-01   0.0000000000E+00   0.2089562365E+00
   0.3674616269E-01   0.7469198817E-01   0.1690890385E-02   0.2132426692E-03   0.0000000000E+00   0.0000000000E+00   0.6778720819E+00   0.3557446934E-01   0.0000000000E+00   0.1365428832E+00
   0.2714070973E-01   0.7586854920E-01   0.1633166530E-02   0.1770577959E-03   0.0000000000E+00   0.0000000000E+00   0.6309970439E+00   0.4571784883E-01   0.0000000000E+00   0.1039260590E+00
   0.1367602067E-01   0.5604446822E-01   0.1574617268E-02   0.1799367240E-03   0.0000000000E+00   0.0000000000E+00   0.7622489534E+00   0.1699987569E+00   0.0000000000E+00   0.9767528258E-01
   0.2079301734E-01   0.5435797878E-01   0.1621857638E-02   0.1996934810E-03   0.0000000000E+00   0.0000000000E+00   0.8016042755E+00   0.1527667305E+00   0.0000000000E+00   0.1485803562E+00
   0.1800353238E-01   0.6211367937E-01   0.1596871475E-02   0.1792380745E-03   0.0000000000E+00   0.0000000000E+00   0.7196359767E+00   0.1227190554E+00   0.0000000000E+00   0.1064002028E+00
   0.1698697037E-01  -0.6387989197E-01   0.2740445168E-02   0.3026726269E-03   0.0000000000E+00   0.0000000000E+00  -0.1105753416E-02  -0.3585605647E-01   0.0000000000E+00   0.4351866378E-01
   0.2003750871E-01  -0.5630131238E-01   0.2667046310E-02   0.3325885222E-03   0.0000000000E+00   0.0000000000E+00   0.7088553070E-02  -0.2703464026E-01   0.0000000000E+00   0.3995224778E-01
  -0.5452311714E-01   0.4231801115E-01   0.1056429656E-02   0.4277103547E-03   0.0000000000E+00   0.0000000000E+00   0.9189914445E+00  -0.6887649783E-01   0.0000000000E+00  -0.1622352065E+00
  -0.5777092332E-01   0.3017150474E-01   0.9700985792E-03   0.5016778407E-03   0.0000000000E+00   0.0000000000E+00   0.9032845735E+00  -0.1128577471E+00   0.0000000000E+00  -0.8499357460E-01
  -0.4582672364E-01   0.3350131041E-01   0.1093221965E-02   0.4085546107E-03   0.0000000000E+00   0.0000000000E+00   0.9864630388E+00  -0.6167737342E-01   0.0000000000E+00  -0.1464077800E+00
  -0.5614557300E-01   0.3624427822E-01   0.1014711397E-02   0.4642134200E-03   0.0000000000E+00   0.0000000000E+00   0.9119603852E+00  -0.9137252906E-01   0.0000000000E+00  -0.1236651619E+00
  -0.5179946990E-01   0.3183686252E-01   0.1031013899E-02   0.4555721200E-03   0.0000000000E+00   0.0000000000E+00   0.9449620773E+00  -0.8815728173E-01   0.0000000000E+00  -0.1150526300E+00
  -0.5017501539E-01   0.3790978299E-01   0.1074730814E-02   0.4182527870E-03   0.0000000000E+00   0.0000000000E+00   0.9516781611E+00  -0.6711319119E-01   0.0000000000E+00  -0.1533398746E+00
  -0.1040653714E+00   0.9231800861E-01   0.8729125525E-03   0.5280477065E-03   0.0000000000E+00   0.0000000000E+00   0.9285580200E+00  -0.4520511197E-02   0.0000000000E+00  -0.2790147025E-01
  -0.9896822485E-01   0.8428286483E-01   0.8787566536E-03   0.5309926302E-03   0.0000000000E+00   0.0000000000E+00   0.8953717521E+00  -0.1006607761E-01   0.0000000000E+00  -0.6324256817E-01
  -0.3114453155E-01  -0.5104211324E-01   0.3823841477E-03   0.4795493637E-03   0.0000000000E+00   0.0000000000E+00   0.6080824456E-01   0.7224121748E-01   0.0000000000E+00   0.1469167652E-01
  -0.2516448815E-01  -0.5031022673E-01   0.3920091473E-03   0.4186940712E-03   0.0000000000E+00   0.0000000000E+00   0.3995524021E-01   0.3885558028E-01   0.0000000000E+00  -0.5700948243E-02
  -0.2788764060E-01  -0.5690708608E-01   0.3245825984E-03   0.4444882173E-03   0.0000000000E+00   0.0000000000E+00   0.3208032252E-01   0.3778385546E-01   0.0000000000E+00  -0.1300493041E-01
   0.5795170560E-01  -0.1242166418E-02   0.2210041600E-02   0.6176476316E-03   0.0000000000E+00   0.0000000000E+00   0.7425061215E+00  -0.7234524159E-01   0.0000000000E+00  -0.1323018363E+00
   0.5314096628E-01  -0.2589270862E-02   0.2186743580E-02   0.5933480175E-03   0.0000000000E+00   0.0000000000E+00   0.7566234064E+00  -0.5462356783E-01   0.0000000000E+00  -0.1636067221E+00
   0.5697380964E-01  -0.5744398813E-02   0.2238551444E-02   0.6268310772E-03   0.0000000000E+00   0.0000000000E+00   0.7008418526E+00  -0.4803242470E-01   0.0000000000E+00  -0.1574578259E+00
   0.1118936559E+00   0.8427248268E-01   0.2203175912E-02   0.5813028776E-03   0.0000000000E+00   0.0000000000E+00   0.9185004573E+00  -0.1056398527E-01   0.0000000000E+00   0.4927582619E-01
   0.1219384005E+00   0.8408163980E-01   0.2288602520E-02   0.6286699987E-03   0.0000000000E+00   0.0000000000E+00   0.9365538165E+00  -0.7464385381E-02   0.0000000000E+00   0.3817123805E-01
   0.1170576753E+00   0.9242100802E-01   0.2212436281E-02   0.5754211164E-03   0.0000000000E+00   0.0000000000E+00   0.9637798801E+00  -0.4406657255E-02   0.0000000000E+00   0.2398604490E-01
  -0.1216577812E-01   0.4950068813E-01   0.1411434480E-02   0.1918963317E-03   0.0000000000E+00   0.0000000000E+00   0.8296372542E+00   0.2179048085E+00   0.0000000000E+00  -0.1281978600E+00
  -0.1110491905E-01   0.5668140183E-01   0.1423057150E-02   0.1797897344E-03   0.0000000000E+00   0.0000000000E+00   0.7593368599E+00   0.1640495858E+00   0.0000000000E+00  -0.1010255333E+00
  -0.5720387538E-02   0.5211060419E-01   0.1454688752E-02   0.1774645906E-03   0.0000000000E+00   0.0000000000E+00   0.7916621991E+00   0.2084643897E+00   0.0000000000E+00  -0.6458275926E-01
   0.1302242823E+00  -0.5095368283E-01   0.2812291276E-02   0.1052878465E-02   0.0000000000E+00   0.0000000000E+00   0.2813067228E+00  -0.2754607004E-01   0.0000000000E+00  -0.4667780652E-01
   0.1409331050E+00  -0.4979450752E-01   0.2837293992E-02   0.1080254682E-02   0.0000000000E+00   0.0000000000E+00   0.2853058100E+00  -0.2717617757E-01   0.0000000000E+00  -0.3726271368E-01
   0.1357119683E+00  -0.5863096277E-01   0.2851695312E-02   0.1077669732E-02   0.0000000000E+00   0.0000000000E+00   0.2361545795E+00  -0.2116055382E-01   0.0000000000E+00  -0.4136660690E-01
   0.1464164852E+00  -0.5747420352E-01   0.2872407203E-02   0.1102626184E-02   0.0000000000E+00   0.0000000000E+00   0.2401691441E+00  -0.2100738618E-01   0.0000000000E+00  -0.3272317307E-01
   0.6379373449E-01  -0.8030615725E-02   0.2299652294E-02   0.6734738345E-03   0.0000000000E+00   0.0000000000E+00   0.6564501553E+00  -0.5109233699E-01   0.0000000000E+00  -0.1354176592E+00
   0.6304167651E-01  -0.1620667532E-01   0.2357889609E-02   0.6909266830E-03   0.0000000000E+00   0.0000000000E+00   0.5822563523E+00  -0.1207537295E-01   0.0000000000E+00  -0.1599109065E+00
   0.5989558777E-01  -0.9139113603E-02   0.2284118572E-02   0.6542536373E-03   0.0000000000E+00   0.0000000000E+00   0.6599255097E+00  -0.3515533646E-01   0.0000000000E+00  -0.1574964848E+00
   0.5952092737E-01  -0.1322706183E-01   0.2314605867E-02   0.6630620734E-03   0.0000000000E+00   0.0000000000E+00   0.6196206557E+00  -0.1767156059E-01   0.0000000000E+00  -0.1694423231E+00
   0.6341717856E-01  -0.1211798357E-01   0.2328244060E-02   0.6828626303E-03   0.0000000000E+00   0.0000000000E+00   0.6190718198E+00  -0.3109923408E-01   0.0000000000E+00  -0.1486697548E+00
  -0.2584584347E-01  -0.8994964394E-01   0.1818772650E-04   0.4180234583E-03   0.0000000000E+00   0.0000000000E+00  -0.3615238738E-01   0.2810056597E-03   0.0000000000E+00  -0.2295155634E-01
  -0.1721488111E-01  -0.8683470064E-01   0.4556788772E-04   0.3360194625E-03   0.0000000000E+00   0.0000000000E+00  -0.1905387675E-01  -0.6878436513E-02   0.0000000000E+00  -0.2980156639E-01
  -0.2298977680E-01  -0.7714576755E-01   0.1347037952E-03   0.3926184493E-03   0.0000000000E+00   0.0000000000E+00  -0.1281980293E-01  -0.8201940311E-02   0.0000000000E+00  -0.4666875365E-01
   0.3314811202E-03  -0.5720103950E-01   0.3314811202E-03   0.1523751001E-03   0.0000000000E+00   0.0000000000E+00  -0.1511562213E-03  -0.1426052872E+00   0.0000000000E+00  -0.4057465729E-02
  -0.5205744933E-02  -0.5421825640E-01   0.3585484265E-03   0.2066403961E-03   0.0000000000E+00   0.0000000000E+00   0.8475716800E-03  -0.1167126040E+00   0.0000000000E+00  -0.2170987571E-01
   0.3306844072E-01  -0.9954508258E-01   0.3068441423E-02   0.4549184247E-03   0.0000000000E+00   0.0000000000E+00  -0.6629560910E-01  -0.1146804958E-02   0.0000000000E+00   0.5476024304E-02
  -0.7122377959E-02  -0.7693229137E-01   0.1380712706E-03   0.2384308286E-03   0.0000000000E+00   0.0000000000E+00  -0.3286730464E-02  -0.3104981922E-01   0.0000000000E+00  -0.2463387397E-01
   0.1888692862E-03  -0.7176540692E-01   0.1888692862E-03   0.1662234774E-03   0.0000000000E+00   0.0000000000E+00   0.2494836867E-02  -0.6886842469E-01   0.0000000000E+00  -0.5564549677E-02
   0.6303721758E-01  -0.9928327224E-01   0.3037218879E-02   0.7167287610E-03   0.0000000000E+00   0.0000000000E+00  -0.1466881615E+00  -0.1494866837E-02   0.0000000000E+00   0.1965806890E-02
   0.5304976923E-01  -0.9936561476E-01   0.3049772230E-02   0.6343862447E-03   0.0000000000E+00   0.0000000000E+00  -0.1318497020E+00  -0.2500928068E-02   0.0000000000E+00   0.3803838380E-02
   0.5861266723E-01  -0.9169779314E-01   0.2980701830E-02   0.6850104640E-03   0.0000000000E+00   0.0000000000E+00  -0.9333488548E-01   0.5320540113E-02   0.0000000000E+00   0.6922012864E-02
   0.3681750254E-01  -0.6001571452E-01   0.2706889342E-02   0.5019243844E-03   0.0000000000E+00   0.0000000000E+00   0.3664321830E-01   0.4633331819E-01   0.0000000000E+00   0.1025415218E-01
   0.2030000030E+00   0.5092705156E-01   0.3000000000E-02   0.9270545631E-03   0.0000000000E+00   0.0000000000E+00   0.7906329019E+00  -0.1258756461E-01   0.0000000000E+00   0.2963667911E-04
   0.1692014698E+00   0.8463783375E-01   0.2699172781E-02   0.7761921549E-03   0.0000000000E+00   0.0000000000E+00   0.9816071866E+00  -0.2284226790E-02   0.0000000000E+00   0.7664683569E-02
   0.1640370390E+00   0.6431039685E-01   0.2693897039E-02   0.8403983524E-03   0.0000000000E+00   0.0000000000E+00   0.8632274433E+00  -0.1259702965E-01   0.0000000000E+00   0.1690392562E-01
   0.1666181781E+00   0.7447524608E-01   0.2695451110E-02   0.8094259756E-03   0.0000000000E+00   0.0000000000E+00   0.9224592807E+00  -0.7087547357E-02   0.0000000000E+00   0.1233078681E-01
   0.1742845044E+00   0.6912163367E-01   0.2767370394E-02   0.8426653707E-03   0.0000000000E+00   0.0000000000E+00   0.8924598090E+00  -0.8474981362E-02   0.0000000000E+00   0.1087341499E-01
   0.1768713274E+00   0.7928418566E-01   0.2774623391E-02   0.8093957579E-03   0.0000000000E+00   0.0000000000E+00   0.9523246132E+00  -0.3377381775E-02   0.0000000000E+00   0.6782972407E-02
   0.1626060890E+00   0.1006980365E+00   0.2606093000E-02   0.6980354589E-03   0.0000000000E+00   0.0000000000E+00   0.1073881947E+01   0.4488080462E-03   0.0000000000E+00  -0.1080704560E-03
   0.1759991112E+00   0.9268664806E-01   0.2747959200E-02   0.7558265610E-03   0.0000000000E+00   0.0000000000E+00   0.1031971798E+01  -0.9670593514E-03   0.0000000000E+00   0.3498915990E-02
   0.1727041186E+00   0.1007174348E+00   0.2704116598E-02   0.7174337723E-03   0.0000000000E+00   0.0000000000E+00   0.1080229665E+01   0.6913386835E-03   0.0000000000E+00  -0.2737159957E-03
   0.1659053345E+00   0.9266888827E-01   0.2654187468E-02   0.7380667698E-03   0.0000000000E+00   0.0000000000E+00   0.1027310854E+01  -0.9911862716E-03   0.0000000000E+00   0.4238555409E-02
   0.1520277151E+00   0.8349050268E-01   0.2550472122E-02   0.7402194793E-03   0.0000000000E+00   0.0000000000E+00   0.9658162124E+00  -0.4241885504E-02   0.0000000000E+00   0.1542167560E-01
   0.1472222965E+00   0.9206786605E-01   0.2483681518E-02   0.6927237531E-03   0.0000000000E+00   0.0000000000E+00   0.1009094224E+01  -0.2113205580E-02   0.0000000000E+00   0.8821382138E-02
   0.1420057597E+00   0.8369090938E-01   0.2462583695E-02   0.7083915820E-03   0.0000000000E+00   0.0000000000E+00   0.9595670633E+00  -0.4674816131E-02   0.0000000000E+00   0.2127671893E-01
  -0.2000000030E+00  -0.4884604248E-01   0.0000000000E+00   0.1153954520E-02   0.0000000000E+00   0.0000000000E+00   0.2808529740E+00  -0.1745391127E-01   0.0000000000E+00   0.7443216221E-04
  -0.1664696175E+00  -0.8270842023E-01   0.3820749458E-04   0.1162594168E-02   0.0000000000E+00   0.0000000000E+00   0.1185264711E+00  -0.3053717712E-02   0.0000000000E+00   0.1154557433E-01
  -0.1612687551E+00  -0.6235523132E-01   0.7851493112E-04   0.1140620778E-02   0.0000000000E+00   0.0000000000E+00   0.2169166195E+00  -0.1451656743E-01   0.0000000000E+00   0.2094156145E-01
  -0.1638706067E+00  -0.7253047840E-01   0.5694834405E-04   0.1152954801E-02   0.0000000000E+00   0.0000000000E+00   0.1677634658E+00  -0.8500855319E-02   0.0000000000E+00   0.1665106455E-01
  -0.1714659767E+00  -0.6713787513E-01   0.5182726992E-04   0.1157961268E-02   0.0000000000E+00   0.0000000000E+00   0.1941275401E+00  -0.1087929417E-01   0.0000000000E+00   0.1401938557E-01
  -0.1740623693E+00  -0.7731531707E-01   0.3570473530E-04   0.1168100535E-02   0.0000000000E+00   0.0000000000E+00   0.1467163516E+00  -0.4792689338E-02   0.0000000000E+00   0.1012160010E-01
  -0.1599815700E+00  -0.9884168005E-01   0.1842595444E-04   0.1158320948E-02   0.0000000000E+00   0.0000000000E+00   0.3682359194E-01   0.3669868461E-03   0.0000000000E+00   0.4301064000E-03
  -0.1732321157E+00  -0.9076183839E-01   0.2180831355E-04   0.1173669614E-02   0.0000000000E+00   0.0000000000E+00   0.8433561115E-01  -0.1373955354E-02   0.0000000000E+00   0.5365939784E-02
  -0.1699854110E+00  -0.9882782705E-01   0.1459102394E-04   0.1172173953E-02   0.0000000000E+00   0.0000000000E+00   0.4694417856E-01   0.8192719963E-03   0.0000000000E+00   0.4475860717E-04
  -0.1632246458E+00  -0.9077410569E-01   0.2925717009E-04   0.1161402315E-02   0.0000000000E+00   0.0000000000E+00   0.7718758627E-01  -0.1153040670E-02   0.0000000000E+00   0.6409495202E-02
  -0.1494450808E+00  -0.8162898356E-01   0.5843324777E-04   0.1134405240E-02   0.0000000000E+00   0.0000000000E+00   0.1129415405E+00  -0.4189730528E-02   0.0000000000E+00   0.2015116044E-01
  -0.1447094153E+00  -0.9025413812E-01   0.4234166159E-04   0.1127560676E-02   0.0000000000E+00   0.0000000000E+00   0.6060485589E-01  -0.1757905680E-02   0.0000000000E+00   0.1131129908E-01
  -0.1395382680E+00  -0.8187964853E-01   0.6774600133E-04   0.1112696566E-02   0.0000000000E+00   0.0000000000E+00   0.1028611118E+00  -0.3464779510E-02   0.0000000000E+00   0.2499261366E-01
  -0.3617626117E-01  -0.5728269341E-01   0.3185974265E-03   0.5257132908E-03   0.0000000000E+00   0.0000000000E+00   0.5303323684E-01   0.6615354294E-01   0.0000000000E+00   0.6953599663E-02
  -0.3006841932E-01  -0.9954506788E-01  -0.6842002496E-04   0.4549331247E-03   0.0000000000E+00   0.0000000000E+00  -0.6768929525E-01  -0.1105252467E-02   0.0000000000E+00  -0.6945536467E-02
  -0.9999038010E-01  -0.9902721781E-01   0.9620895054E-05   0.9727831906E-03   0.0000000000E+00   0.0000000000E+00  -0.8711244374E-01   0.9483852924E-04   0.0000000000E+00   0.1963116637E-02
  -0.1003901639E+00  -0.8229987779E-01   0.9413307753E-04   0.9765728056E-03   0.0000000000E+00   0.0000000000E+00   0.4371418016E-01   0.1141618246E-02   0.0000000000E+00   0.3880355184E-01
  -0.1050179050E+00  -0.9076937229E-01   0.5144899531E-04   0.9980282119E-03   0.0000000000E+00   0.0000000000E+00  -0.1349529996E-01  -0.2219102988E-03   0.0000000000E+00   0.1955098944E-01
  -0.9536411609E-01  -0.9055722724E-01   0.5082790552E-04   0.9518169623E-03   0.0000000000E+00   0.0000000000E+00  -0.3031478564E-01   0.7205026003E-03   0.0000000000E+00   0.1975581931E-01
  -0.5004972929E-01  -0.9936562267E-01  -0.4973228709E-04   0.6343783316E-03   0.0000000000E+00   0.0000000000E+00  -0.1327660782E+00  -0.3791138499E-02   0.0000000000E+00  -0.4635898511E-02
   0.3160133263E-01   0.1001431704E+00   0.1601333327E-02   0.1431694207E-03   0.0000000000E+00   0.0000000000E+00   0.4309686379E+00  -0.4361448396E-02   0.0000000000E+00   0.3113082931E-02
   0.1500083937E-02   0.1000982882E+00   0.1500083937E-02   0.9828723327E-04   0.0000000000E+00   0.0000000000E+00   0.3376279211E+00  -0.4870294428E-02   0.0000000000E+00   0.2533042071E-03
   0.1153121027E-01   0.1001035690E+00   0.1531210494E-02   0.1035679668E-03   0.0000000000E+00   0.0000000000E+00   0.3460973696E+00  -0.6833081434E-02   0.0000000000E+00   0.6127112767E-03
   0.7007788163E-02   0.9178451721E-01   0.1521265363E-02   0.1123351129E-03   0.0000000000E+00   0.0000000000E+00   0.4329584605E+00   0.1120016275E-01   0.0000000000E+00   0.1386722850E-01
  -0.2860133163E-01   0.1001431575E+00   0.1398667666E-02   0.1431565257E-03   0.0000000000E+00   0.0000000000E+00   0.4302716820E+00  -0.4229820108E-02   0.0000000000E+00  -0.3129068289E-02
  -0.5874907488E-01   0.1002642378E+00   0.1250923819E-02   0.2642368389E-03   0.0000000000E+00   0.0000000000E+00   0.6633625318E+00   0.7893349730E-03   0.0000000000E+00  -0.5751663664E-02
  -0.4869275989E-01   0.1002173441E+00   0.1307237111E-02   0.2173431213E-03   0.0000000000E+00   0.0000000000E+00   0.5783194453E+00  -0.7652515654E-03   0.0000000000E+00  -0.5100231395E-02
  -0.5365532941E-01   0.9224428669E-01   0.1245283295E-02   0.2597166851E-03   0.0000000000E+00   0.0000000000E+00   0.6691366274E+00  -0.5045705526E-03   0.0000000000E+00  -0.5841787050E-01
  -0.6864745514E-01   0.8447407064E-01   0.1113083460E-02   0.3616052377E-03   0.0000000000E+00   0.0000000000E+00   0.7858446725E+00  -0.7838935569E-02   0.0000000000E+00  -0.1053547285E+00
  -0.6369806263E-01   0.9236720093E-01   0.1182204173E-02   0.3109712314E-03   0.0000000000E+00   0.0000000000E+00   0.7257235217E+00  -0.1680447271E-02   0.0000000000E+00  -0.5585386608E-01
  -0.6881332918E-01   0.1003151369E+00   0.1186671121E-02   0.3151359379E-03   0.0000000000E+00   0.0000000000E+00   0.7456683146E+00   0.2105656029E-02   0.0000000000E+00  -0.5265455273E-02
  -0.7376763089E-01   0.9242162171E-01   0.1112641313E-02   0.3653920064E-03   0.0000000000E+00   0.0000000000E+00   0.7993150122E+00  -0.4906637233E-02   0.0000000000E+00  -0.5285336029E-01
  -0.4902633926E-01   0.5525380123E-01   0.1150862341E-02   0.3443074316E-03   0.0000000000E+00   0.0000000000E+00   0.8721425843E+00  -0.7967869880E-02   0.0000000000E+00  -0.2048976043E+00
  -0.4089827941E-01   0.4433950082E-01   0.1181221490E-02   0.3338274222E-03   0.0000000000E+00   0.0000000000E+00   0.9524052595E+00   0.1629625367E-01   0.0000000000E+00  -0.2154987762E+00
  -0.4235423032E-01   0.5475783147E-01   0.1201535979E-02   0.3076436728E-03   0.0000000000E+00   0.0000000000E+00   0.8669596289E+00   0.3068907445E-01   0.0000000000E+00  -0.2119947445E+00
  -0.4496283052E-01   0.4979673878E-01   0.1165520678E-02   0.3391551793E-03   0.0000000000E+00   0.0000000000E+00   0.9086588941E+00  -0.1231714581E-02   0.0000000000E+00  -0.2064869433E+00
  -0.3828876143E-01   0.4930024642E-01   0.1218158272E-02   0.3019688213E-03   0.0000000000E+00   0.0000000000E+00   0.9063627066E+00   0.4553775052E-01   0.0000000000E+00  -0.2165506939E+00
   0.2040482333E-02   0.8243718197E-01   0.1502474045E-02   0.1265053665E-03   0.0000000000E+00   0.0000000000E+00   0.5172282759E+00   0.2426980286E-01   0.0000000000E+00   0.5947923229E-03
  -0.3468154770E-02   0.9075223537E-01   0.1480359740E-02   0.1137468687E-03   0.0000000000E+00   0.0000000000E+00   0.4410083754E+00   0.1351086800E-01   0.0000000000E+00  -0.1326278081E-01
   0.9486289444E-02   0.6196415474E-01   0.1546325844E-02   0.1650159417E-03   0.0000000000E+00   0.0000000000E+00   0.7069590284E+00   0.1384736000E+00   0.0000000000E+00   0.5762069661E-01
   0.7199062579E-02   0.5538294385E-01   0.1534830859E-02   0.1719362493E-03   0.0000000000E+00   0.0000000000E+00   0.7586253174E+00   0.1821702797E+00   0.0000000000E+00   0.4731574980E-01
   0.9183725069E-01   0.8441537646E-01   0.2039366486E-02   0.4757123552E-03   0.0000000000E+00   0.0000000000E+00   0.8660223974E+00  -0.1244313081E-01   0.0000000000E+00   0.7775316921E-01
   0.1020453525E+00   0.1004731346E+00   0.2045351479E-02   0.4731335517E-03   0.0000000000E+00   0.0000000000E+00   0.9398373922E+00   0.1593125573E-02   0.0000000000E+00   0.2531939467E-02
   0.1018642990E+00   0.8434563833E-01   0.2120113233E-02   0.5302127325E-03   0.0000000000E+00   0.0000000000E+00   0.8953105588E+00  -0.9928550957E-02   0.0000000000E+00   0.6319413696E-01
   0.1069712808E+00   0.9237295759E-01   0.2126039773E-02   0.5273706875E-03   0.0000000000E+00   0.0000000000E+00   0.9284979150E+00  -0.4482082018E-02   0.0000000000E+00   0.2785049727E-01
   0.9694146041E-01   0.9244522192E-01   0.2042521309E-02   0.4753891189E-03   0.0000000000E+00   0.0000000000E+00   0.8995812488E+00  -0.5651325144E-02   0.0000000000E+00   0.3847700847E-01
   0.5169277260E-01   0.1002173358E+00   0.1692775598E-02   0.2173348238E-03   0.0000000000E+00   0.0000000000E+00   0.5780363039E+00  -0.8245932071E-03   0.0000000000E+00   0.5341625100E-02
  -0.8531216451E-02   0.1001036201E+00   0.1468783329E-02   0.1036191494E-03   0.0000000000E+00   0.0000000000E+00   0.3474706510E+00  -0.8243509413E-02   0.0000000000E+00  -0.1190065833E-02
  -0.2534798620E-01   0.5190756341E-01   0.1322758401E-02   0.2311671060E-03   0.0000000000E+00   0.0000000000E+00   0.8550756103E+00   0.1337317489E+00   0.0000000000E+00  -0.1986252027E+00
  -0.1940559149E-01   0.4732761377E-01   0.1359059307E-02   0.2167469688E-03   0.0000000000E+00   0.0000000000E+00   0.8809012775E+00   0.1857453550E+00   0.0000000000E+00  -0.1811918048E+00
  -0.1810752407E-01   0.5407541448E-01   0.1375781427E-02   0.2010931794E-03   0.0000000000E+00   0.0000000000E+00   0.8052310822E+00   0.1647277554E+00   0.0000000000E+00  -0.1506229060E+00
   0.1429771973E+00  -0.9888246047E-01   0.2977196281E-02   0.1117540525E-02   0.0000000000E+00   0.0000000000E+00   0.8765787824E-02   0.6127905206E-03   0.0000000000E+00  -0.1055004884E-02
   0.1422067583E+00  -0.8224231134E-01   0.2932936310E-02   0.1112035156E-02   0.0000000000E+00   0.0000000000E+00   0.1004990911E+00  -0.3363657760E-02   0.0000000000E+00  -0.2463401390E-01
   0.1376856558E+00  -0.9075397960E-01   0.2953945759E-02   0.1102962001E-02   0.0000000000E+00   0.0000000000E+00   0.4653004152E-01  -0.1944574281E-02   0.0000000000E+00  -0.1451334428E-01
   0.1474999276E+00  -0.9037029250E-01   0.2957814638E-02   0.1127113902E-02   0.0000000000E+00   0.0000000000E+00   0.5968986513E-01  -0.1704896888E-02   0.0000000000E+00  -0.1120121488E-01
   0.1947695407E+00  -0.3368003253E-01   0.2972909693E-02   0.1130991071E-02   0.0000000000E+00   0.0000000000E+00   0.3532056477E+00  -0.2386685140E-01   0.0000000000E+00  -0.2793197364E-02
   0.2030000030E+00  -0.2887554616E-01   0.3000000000E-02   0.1124453137E-02   0.0000000000E+00   0.0000000000E+00   0.3752476248E+00  -0.2524490272E-01   0.0000000000E+00  -0.5338297680E-04
  -0.1596060826E+00   0.1006980455E+00   0.3939133860E-03   0.6980444662E-03   0.0000000000E+00   0.0000000000E+00   0.1074056738E+01   0.6341400630E-03   0.0000000000E+00  -0.1434788181E-03
  -0.1495087388E+00   0.1006731236E+00   0.4912672103E-03   0.6731226068E-03   0.0000000000E+00   0.0000000000E+00   0.1066421298E+01   0.1271695847E-02   0.0000000000E+00  -0.3317329241E-03
  -0.1550912317E+00   0.9173801298E-01   0.4159002743E-03   0.7241343758E-03   0.0000000000E+00   0.0000000000E+00   0.1018001756E+01  -0.1623102993E-02   0.0000000000E+00  -0.7201905599E-02
  -0.1914060734E+00   0.3590597207E-01   0.5553459947E-04   0.9712129737E-03   0.0000000000E+00   0.0000000000E+00   0.7068398865E+00  -0.1907811559E-01   0.0000000000E+00  -0.3551981257E-02
  -0.2000000030E+00   0.3098737224E-01   0.0000000000E+00   0.9873729384E-03   0.0000000000E+00   0.0000000000E+00   0.6796973002E+00  -0.2071288596E-01   0.0000000000E+00  -0.5938626584E-04
   0.1121329728E+00   0.1005218514E+00   0.2132973835E-02   0.5218503783E-03   0.0000000000E+00   0.0000000000E+00   0.9830279472E+00   0.2687376132E-02   0.0000000000E+00   0.1832209602E-02
   0.1013321488E+00   0.6881790706E-01   0.2182958948E-02   0.5838508639E-03   0.0000000000E+00   0.0000000000E+00   0.8582812522E+00  -0.3991911609E-01   0.0000000000E+00   0.8967715100E-01
   0.1066124180E+00   0.7654578932E-01   0.2192583034E-02   0.5831713165E-03   0.0000000000E+00   0.0000000000E+00   0.8877307901E+00  -0.2451426723E-01   0.0000000000E+00   0.6881075200E-01
   0.9658537445E-01   0.7661646603E-01   0.2111833652E-02   0.5296021307E-03   0.0000000000E+00   0.0000000000E+00   0.8613153434E+00  -0.2724262212E-01   0.0000000000E+00   0.8476355324E-01
  -0.1099836797E+00  -0.9898180272E-01   0.1631931322E-04   0.1018198281E-02   0.0000000000E+00   0.0000000000E+00  -0.6047948340E-01   0.5124917747E-03   0.0000000000E+00   0.1754445087E-02
  -0.1010464750E+00  -0.6647638972E-01   0.1762490131E-03   0.9733662776E-03   0.0000000000E+00   0.0000000000E+00   0.1671622380E+00  -0.2972890122E-02   0.0000000000E+00   0.6221995453E-01
  -0.1101870418E+00  -0.6637822594E-01   0.1620922393E-03   0.1011433657E-02   0.0000000000E+00   0.0000000000E+00   0.1758076132E+00  -0.7837154386E-02   0.0000000000E+00   0.5705926855E-01
  -0.1146870818E+00  -0.7439859057E-01   0.1200472154E-03   0.1033590830E-02   0.0000000000E+00   0.0000000000E+00   0.1212147618E+00  -0.6844995398E-02   0.0000000000E+00   0.4448376839E-01
  -0.1055510221E+00  -0.7449489587E-01   0.1296899470E-03   0.9973818346E-03   0.0000000000E+00   0.0000000000E+00   0.1127823765E+00  -0.3299222957E-02   0.0000000000E+00   0.4962261961E-01
  -0.1190402849E+00   0.3644168263E-01   0.5353640718E-03   0.8014243347E-03   0.0000000000E+00   0.0000000000E+00   0.7348122633E+00  -0.6773986279E-01   0.0000000000E+00  -0.4441550615E-01
  -0.9895772566E-01   0.3540571067E-01   0.6732336405E-03   0.7138665704E-03   0.0000000000E+00   0.0000000000E+00   0.7600887105E+00  -0.9371269097E-01   0.0000000000E+00  -0.5903305359E-01
  -0.1086912657E+00   0.5215468174E-01   0.6689673058E-03   0.6986401355E-03   0.0000000000E+00   0.0000000000E+00   0.8070441855E+00  -0.6198431865E-01   0.0000000000E+00  -0.6984864299E-01
  -0.1089997107E+00   0.3592578065E-01   0.6035903152E-03   0.7597294470E-03   0.0000000000E+00   0.0000000000E+00   0.7443055383E+00  -0.8110237372E-01   0.0000000000E+00  -0.5138318859E-01
  -0.1038234816E+00   0.4378020416E-01   0.6721184277E-03   0.7062594551E-03   0.0000000000E+00   0.0000000000E+00   0.7849918838E+00  -0.7693209040E-01   0.0000000000E+00  -0.6636094015E-01
  -0.1138672916E+00   0.4429952736E-01   0.6006494235E-03   0.7513754564E-03   0.0000000000E+00   0.0000000000E+00   0.7712568905E+00  -0.6544735140E-01   0.0000000000E+00  -0.5637860952E-01
  -0.2000000030E+00  -0.2887553980E-01   0.0000000000E+00   0.1124459497E-02   0.0000000000E+00   0.0000000000E+00   0.3751885223E+00  -0.2527124471E-01   0.0000000000E+00  -0.2710904393E-06
   0.2030000030E+00   0.1104056187E-01   0.3000000000E-02   0.1040562086E-02   0.0000000000E+00   0.0000000000E+00   0.5739198249E+00  -0.2674936343E-01   0.0000000000E+00   0.2655781233E-04
   0.2030000030E+00   0.3098736601E-01   0.3000000000E-02   0.9873667087E-03   0.0000000000E+00   0.0000000000E+00   0.6797019663E+00  -0.2070853017E-01   0.0000000000E+00   0.2976993759E-04
  -0.2000000030E+00   0.1064452822E-02   0.0000000000E+00   0.1064452822E-02   0.0000000000E+00   0.0000000000E+00   0.5227575064E+00  -0.2791387127E-01   0.0000000000E+00  -0.6169193177E-04
  -0.2000000030E+00   0.1104056844E-01   0.0000000000E+00   0.1040568659E-02   0.0000000000E+00   0.0000000000E+00   0.5739086943E+00  -0.2675759477E-01   0.0000000000E+00  -0.4054996934E-04
  -0.1915693103E+00   0.6033064269E-02   0.4278467867E-04   0.1051101769E-02   0.0000000000E+00   0.0000000000E+00   0.5492420280E+00  -0.2775761017E-01   0.0000000000E+00  -0.1227854112E-02
  -0.1831435761E+00   0.1016747549E-02   0.8181693853E-04   0.1057963695E-02   0.0000000000E+00   0.0000000000E+00   0.5242878672E+00  -0.3068737225E-01   0.0000000000E+00  -0.1566513735E-02
  -0.1915743508E+00  -0.3949048101E-02   0.3895120446E-04   0.1074130539E-02   0.0000000000E+00   0.0000000000E+00   0.4987535578E+00  -0.2866472509E-01   0.0000000000E+00  -0.2469811104E-03
   0.1701642650E+00  -0.2824744756E-01   0.2883084043E-02   0.1101283436E-02   0.0000000000E+00   0.0000000000E+00   0.3844686897E+00  -0.3210289813E-01   0.0000000000E+00  -0.1016705119E-01
   0.1783291095E+00  -0.3329763572E-01   0.2918049463E-02   0.1119501779E-02   0.0000000000E+00   0.0000000000E+00   0.3580305602E+00  -0.2677491816E-01   0.0000000000E+00  -0.8786170311E-02
   0.1783706908E+00  -0.2345137048E-01   0.2907312772E-02   0.1102271221E-02   0.0000000000E+00   0.0000000000E+00   0.4059698637E+00  -0.3065373812E-01   0.0000000000E+00  -0.5838408990E-02
   0.1867263456E+00  -0.3809771509E-01   0.2949564618E-02   0.1133935408E-02   0.0000000000E+00   0.0000000000E+00   0.3324551755E+00  -0.2356744570E-01   0.0000000000E+00  -0.6345688308E-02
  -0.2000000030E+00  -0.8913551443E-02   0.0000000000E+00   0.1086448337E-02   0.0000000000E+00   0.0000000000E+00   0.4726885667E+00  -0.2860957913E-01   0.0000000000E+00  -0.2336243871E-04
  -0.7007324886E-01  -0.1308242263E-02   0.6876270433E-03   0.7029355673E-03   0.0000000000E+00   0.0000000000E+00   0.6762448969E+00  -0.8588400569E-01   0.0000000000E+00   0.7857411681E-01
  -0.6900784211E-01  -0.1347225666E-01   0.6134004908E-03   0.7341379410E-03   0.0000000000E+00   0.0000000000E+00   0.5887623678E+00  -0.4388045458E-01   0.0000000000E+00   0.1182732965E+00
  -0.6063998684E-01  -0.6837859708E-02   0.7101128642E-03   0.6689853420E-03   0.0000000000E+00   0.0000000000E+00   0.6683453420E+00  -0.5623062456E-01   0.0000000000E+00   0.1323552474E+00
  -0.6953957840E-01  -0.7389140378E-02   0.6514771029E-03   0.7196459318E-03   0.0000000000E+00   0.0000000000E+00   0.6321316140E+00  -0.6541201585E-01   0.0000000000E+00   0.9930509890E-01
  -0.6482511841E-01  -0.1015438955E-01   0.6605527903E-03   0.7022304477E-03   0.0000000000E+00   0.0000000000E+00   0.6264737701E+00  -0.5070475500E-01   0.0000000000E+00   0.1245948928E+00
  -0.6535569555E-01  -0.4072453036E-02   0.6997960512E-03   0.6865582840E-03   0.0000000000E+00   0.0000000000E+00   0.6746053690E+00  -0.6999597035E-01   0.0000000000E+00   0.1045095754E+00
  -0.8999961540E-01  -0.9907976782E-01   0.3882010776E-06   0.9202331797E-03   0.0000000000E+00   0.0000000000E+00  -0.1148124173E+00  -0.6685243968E-03   0.0000000000E+00   0.1210126604E-02
  -0.7781494668E-01  -0.3126605485E-01   0.4507650166E-03   0.8192446463E-03   0.0000000000E+00   0.0000000000E+00   0.4335218539E+00  -0.6900843520E-02   0.0000000000E+00   0.1107219143E+00
  -0.7750262332E-01  -0.4785324111E-01   0.3384573784E-03   0.8387878912E-03   0.0000000000E+00   0.0000000000E+00   0.2910227781E+00   0.2371173984E-01   0.0000000000E+00   0.9909789346E-01
  -0.6579370583E-01  -0.3787081963E-01   0.4460758675E-03   0.7599341656E-03   0.0000000000E+00   0.0000000000E+00   0.3636432617E+00   0.4395680326E-01   0.0000000000E+00   0.1329352645E+00
  -0.7765812722E-01  -0.3955789834E-01   0.3952726845E-03   0.8307677620E-03   0.0000000000E+00   0.0000000000E+00   0.3635338765E+00   0.1223407445E-01   0.0000000000E+00   0.1074702503E+00
  -0.7165018869E-01  -0.4286117423E-01   0.3902425111E-03   0.8002189719E-03   0.0000000000E+00   0.0000000000E+00   0.3234287283E+00   0.3046169431E-01   0.0000000000E+00   0.1126444307E+00
  -0.7180210814E-01  -0.3456643773E-01   0.4506422637E-03   0.7915888732E-03   0.0000000000E+00   0.0000000000E+00   0.4017659410E+00   0.1845799576E-01   0.0000000000E+00   0.1228174476E+00
  -0.5267882176E-01  -0.4176976095E-01   0.4484149444E-03   0.6729370481E-03   0.0000000000E+00   0.0000000000E+00   0.2770913662E+00   0.9665232986E-01   0.0000000000E+00   0.1349222669E+00
  -0.4304397644E-01  -0.3891659102E-01   0.4960728550E-03   0.5964902768E-03   0.0000000000E+00   0.0000000000E+00   0.2517422589E+00   0.1273381735E+00   0.0000000000E+00   0.1463558684E+00
  -0.4712427716E-01  -0.3126950116E-01   0.5636445394E-03   0.6283976367E-03   0.0000000000E+00   0.0000000000E+00   0.3814716446E+00   0.1078656727E+00   0.0000000000E+00   0.1945322055E+00
  -0.4786137794E-01  -0.4034219455E-01   0.4722669637E-03   0.6356932513E-03   0.0000000000E+00   0.0000000000E+00   0.2663178645E+00   0.1134025011E+00   0.0000000000E+00   0.1411955186E+00
  -0.4508311496E-01  -0.3509187179E-01   0.5308705354E-03   0.6136201128E-03   0.0000000000E+00   0.0000000000E+00   0.3141911843E+00   0.1194865004E+00   0.0000000000E+00   0.1712520193E+00
  -0.4990310175E-01  -0.3651926714E-01   0.5044792534E-03   0.6510312554E-03   0.0000000000E+00   0.0000000000E+00   0.3248890716E+00   0.9845948227E-01   0.0000000000E+00   0.1612832008E+00
  -0.4415683691E-01  -0.2751038463E-01   0.6115709864E-03   0.6043328702E-03   0.0000000000E+00   0.0000000000E+00   0.4206416756E+00   0.1092462542E+00   0.0000000000E+00   0.2193244887E+00
  -0.4861384723E-01  -0.2644368654E-01   0.6059100717E-03   0.6358546551E-03   0.0000000000E+00   0.0000000000E+00   0.4524777055E+00   0.8292756346E-01   0.0000000000E+00   0.2065062703E+00
   0.9196236749E-01   0.1004213592E+00   0.1962363891E-02   0.4213581594E-03   0.0000000000E+00   0.0000000000E+00   0.8874602163E+00   0.2982710902E-02   0.0000000000E+00   0.3673558894E-02
   0.8686181587E-01   0.9239098798E-01   0.1962874666E-02   0.4211551775E-03   0.0000000000E+00   0.0000000000E+00   0.8437719264E+00  -0.4502517602E-02   0.0000000000E+00   0.4295315166E-01
   0.7128257601E-01   0.5226004879E-01   0.2015474408E-02   0.4732311941E-03   0.0000000000E+00   0.0000000000E+00   0.8621801817E+00  -0.7362431902E-01   0.0000000000E+00   0.1524535530E+00
   0.5379664931E-01   0.5369203697E-01   0.1868527708E-02   0.3603451748E-03   0.0000000000E+00   0.0000000000E+00   0.8806599212E+00  -0.1948279543E-01   0.0000000000E+00   0.2009050644E+00
   0.6660275725E-01   0.6019531925E-01   0.1946074946E-02   0.4140621535E-03   0.0000000000E+00   0.0000000000E+00   0.8412956194E+00  -0.4400959742E-01   0.0000000000E+00   0.1639375231E+00
   0.5786265860E-01   0.6091284243E-01   0.1875468100E-02   0.3591501260E-03   0.0000000000E+00   0.0000000000E+00   0.8462589750E+00  -0.2100638633E-01   0.0000000000E+00   0.1873987375E+00
   0.6253932701E-01   0.5297569235E-01   0.1941713509E-02   0.4164357454E-03   0.0000000000E+00   0.0000000000E+00   0.8737680148E+00  -0.4767613837E-01   0.0000000000E+00   0.1779391801E+00
  -0.1656209712E+00   0.3056186739E-01   0.2142008081E-03   0.9579762870E-03   0.0000000000E+00   0.0000000000E+00   0.6807404676E+00  -0.3013997245E-01   0.0000000000E+00  -0.1355095908E-01
  -0.1744994917E+00   0.2575261250E-01   0.1528913441E-03   0.9854223019E-03   0.0000000000E+00   0.0000000000E+00   0.6542039580E+00  -0.2757622596E-01   0.0000000000E+00  -0.8941464505E-02
   0.8182441930E-01   0.8433771693E-01   0.1962376001E-02   0.4197117333E-03   0.0000000000E+00   0.0000000000E+00   0.8292229501E+00  -0.8959327731E-02   0.0000000000E+00   0.9297965548E-01
   0.4941772202E-01   0.2908772998E-01   0.1934598221E-02   0.4321841764E-03   0.0000000000E+00   0.0000000000E+00   0.9862761991E+00  -0.8264889649E-01   0.0000000000E+00   0.1093249860E+00
   0.4424706699E-01   0.3015389906E-01   0.1880748593E-02   0.3922084570E-03   0.0000000000E+00   0.0000000000E+00   0.1027659758E+01  -0.3934188008E-01   0.0000000000E+00   0.1449889497E+00
   0.4561260820E-01   0.2520597120E-01   0.1920585603E-02   0.4240046017E-03   0.0000000000E+00   0.0000000000E+00   0.1023826918E+01  -0.7713753379E-01   0.0000000000E+00   0.8498796982E-01
   0.5965516866E-01   0.4369937166E-01   0.1955767764E-02   0.4355078623E-03   0.0000000000E+00   0.0000000000E+00   0.9070103439E+00  -0.7112516996E-01   0.0000000000E+00   0.1596370416E+00
   0.6858479328E-01   0.3618590562E-01   0.2065473283E-02   0.5239549214E-03   0.0000000000E+00   0.0000000000E+00   0.8688637571E+00  -0.1098184930E+00   0.0000000000E+00   0.1029853642E+00
   0.6411971624E-01   0.3994270437E-01   0.2010357640E-02   0.4797952654E-03   0.0000000000E+00   0.0000000000E+00   0.8920130866E+00  -0.9025889681E-01   0.0000000000E+00   0.1315727420E+00
   0.6993248635E-01   0.4422227808E-01   0.2039279247E-02   0.4978938849E-03   0.0000000000E+00   0.0000000000E+00   0.8685037028E+00  -0.8863906815E-01   0.0000000000E+00   0.1318361350E+00
   0.6546933034E-01   0.4797986171E-01   0.1986077240E-02   0.4545229069E-03   0.0000000000E+00   0.0000000000E+00   0.8808580348E+00  -0.7655625758E-01   0.0000000000E+00   0.1535724368E+00
   0.5685295595E-01   0.7590886842E-01   0.1817014650E-02   0.3057707158E-03   0.0000000000E+00   0.0000000000E+00   0.7512040621E+00  -0.2154348254E-02   0.0000000000E+00   0.1457736290E+00
   0.4666921822E-01   0.7476160009E-01   0.1752722515E-02   0.2569116905E-03   0.0000000000E+00   0.0000000000E+00   0.7255438551E+00   0.1553648362E-01   0.0000000000E+00   0.1506331495E+00
   0.5173696679E-01   0.6698216072E-01   0.1810149390E-02   0.3048735234E-03   0.0000000000E+00   0.0000000000E+00   0.7926864426E+00   0.9792206703E-02   0.0000000000E+00   0.1846783157E+00
   0.2030000030E+00  -0.8913557875E-02   0.3000000000E-02   0.1086441905E-02   0.0000000000E+00   0.0000000000E+00   0.4727198403E+00  -0.2858382539E-01   0.0000000000E+00  -0.1164547932E-05
   0.7404826536E-01  -0.1220850743E-01   0.2389370960E-02   0.7416000738E-03   0.0000000000E+00   0.0000000000E+00   0.5939739549E+00  -0.5179832585E-01   0.0000000000E+00  -0.1083729134E+00
   0.6867922205E-01  -0.2249063782E-01   0.2434545354E-02   0.7368004765E-03   0.0000000000E+00   0.0000000000E+00   0.5140263248E+00  -0.2257811520E-02   0.0000000000E+00  -0.1432328085E+00
   0.6854401875E-01  -0.1420666954E-01   0.2372678149E-02   0.7171851584E-03   0.0000000000E+00   0.0000000000E+00   0.5896169388E+00  -0.3235398407E-01   0.0000000000E+00  -0.1327312165E+00
   0.6586118552E-01  -0.1934827281E-01   0.2396953723E-02   0.7142482895E-03   0.0000000000E+00   0.0000000000E+00   0.5474852231E+00  -0.7630682225E-02   0.0000000000E+00  -0.1509525827E+00
   0.7136205781E-01  -0.1734833266E-01   0.2410272213E-02   0.7404402437E-03   0.0000000000E+00   0.0000000000E+00   0.5557239559E+00  -0.2740921558E-01   0.0000000000E+00  -0.1269426694E+00
   0.1480572928E+00   0.4797288302E-01   0.2611379788E-02   0.8548972210E-03   0.0000000000E+00   0.0000000000E+00   0.7750622788E+00  -0.3253541038E-01   0.0000000000E+00   0.2928053549E-01
   0.1560444076E+00   0.5614357240E-01   0.2649887611E-02   0.8495801996E-03   0.0000000000E+00   0.0000000000E+00   0.8183814288E+00  -0.2199765117E-01   0.0000000000E+00   0.2303106960E-01
   0.1525861795E+00   0.6547884999E-01   0.2601134464E-02   0.8079444871E-03   0.0000000000E+00   0.0000000000E+00   0.8676139973E+00  -0.1585997412E-01   0.0000000000E+00   0.2428215621E-01
   0.1445974133E+00   0.5730749030E-01   0.2560975271E-02   0.8125875010E-03   0.0000000000E+00   0.0000000000E+00   0.8211872484E+00  -0.2776238003E-01   0.0000000000E+00   0.3211996725E-01
   0.1519386752E+00   0.2892363681E-01   0.2684159178E-02   0.9263014091E-03   0.0000000000E+00   0.0000000000E+00   0.6781225634E+00  -0.4177647908E-01   0.0000000000E+00   0.2092174719E-01
   0.1538468417E+00   0.1027210144E-01   0.2737727677E-02   0.9845746074E-03   0.0000000000E+00   0.0000000000E+00   0.5847062571E+00  -0.4639821064E-01   0.0000000000E+00   0.9672995885E-02
   0.1692914967E+00   0.2073029179E-01   0.2805322655E-02   0.9871491892E-03   0.0000000000E+00   0.0000000000E+00   0.6296669721E+00  -0.3326452168E-01   0.0000000000E+00   0.1069029394E-01
   0.1528932304E+00   0.1959869125E-01   0.2711415435E-02   0.9562601497E-03   0.0000000000E+00   0.0000000000E+00   0.6308995850E+00  -0.4515418586E-01   0.0000000000E+00   0.1563864906E-01
   0.1615676136E+00   0.1550253009E-01   0.2769961574E-02   0.9871953908E-03   0.0000000000E+00   0.0000000000E+00   0.6070123072E+00  -0.3939838372E-01   0.0000000000E+00   0.1055066450E-01
   0.1606169275E+00   0.2482922430E-01   0.2746575522E-02   0.9589852991E-03   0.0000000000E+00   0.0000000000E+00   0.6545207342E+00  -0.3690281156E-01   0.0000000000E+00   0.1520469070E-01
  -0.3908708618E-01   0.2496132204E-01   0.1111962620E-02   0.4004719403E-03   0.0000000000E+00   0.0000000000E+00   0.1058784091E+01  -0.5904237326E-01   0.0000000000E+00  -0.1016207239E+00
  -0.3792715614E-01   0.1591518151E-01   0.1064280259E-02   0.4349854126E-03   0.0000000000E+00   0.0000000000E+00   0.1044589977E+01  -0.8334072681E-01   0.0000000000E+00   0.8187033093E-02
  -0.3629283064E-01   0.2107993676E-01   0.1116027865E-02   0.3984959571E-03   0.0000000000E+00   0.0000000000E+00   0.1097030408E+01  -0.5418730281E-01   0.0000000000E+00  -0.6706896623E-01
  -0.4071754590E-01   0.1979584395E-01   0.1064080703E-02   0.4362385479E-03   0.0000000000E+00   0.0000000000E+00   0.1021010296E+01  -0.8507924313E-01   0.0000000000E+00  -0.3051209152E-01
  -0.1293171138E+00   0.1006073180E+00   0.6828811916E-03   0.6073169715E-03   0.0000000000E+00   0.0000000000E+00   0.1037941104E+01   0.1972860966E-02   0.0000000000E+00  -0.7974807161E-03
   0.1629815891E+00  -0.9884170020E-01   0.2981593104E-02   0.1158300802E-02   0.0000000000E+00   0.0000000000E+00   0.3714159893E-01   0.7789476861E-03   0.0000000000E+00  -0.8032570211E-03
   0.1685273823E+00  -0.8845298214E-01   0.2969089347E-02   0.1163793362E-02   0.0000000000E+00   0.0000000000E+00   0.8957116134E-01  -0.2147373409E-02   0.0000000000E+00  -0.7228671436E-02
   0.1729854229E+00  -0.9882782597E-01   0.2985420894E-02   0.1172175033E-02   0.0000000000E+00   0.0000000000E+00   0.4652491323E-01   0.1331057362E-02   0.0000000000E+00  -0.6495013641E-03
   0.1785359725E+00  -0.8844168883E-01   0.2977673528E-02   0.1175086673E-02   0.0000000000E+00   0.0000000000E+00   0.9693951201E-01  -0.1840200778E-02   0.0000000000E+00  -0.5713842808E-02
  -0.1616614088E+00   0.8267868783E-01   0.3371161782E-03   0.7746490286E-03   0.0000000000E+00   0.0000000000E+00   0.9686502929E+00  -0.2967707990E-02   0.0000000000E+00  -0.1038594360E-01
  -0.1661778041E+00   0.9163877578E-01   0.3135849176E-03   0.7486140805E-03   0.0000000000E+00   0.0000000000E+00   0.1022457884E+01  -0.1383684875E-02   0.0000000000E+00  -0.3955590763E-02
  -0.1465713405E+00   0.4792115960E-01   0.3776824763E-03   0.8594816036E-03   0.0000000000E+00   0.0000000000E+00   0.7747425728E+00  -0.3147168566E-01   0.0000000000E+00  -0.2808035638E-01
  -0.1547452210E+00   0.5526323903E-01   0.3354699514E-03   0.8568569295E-03   0.0000000000E+00   0.0000000000E+00   0.8136564220E+00  -0.2174814907E-01   0.0000000000E+00  -0.2194790536E-01
  -0.1558147931E+00   0.4419813572E-01   0.3041208587E-03   0.8958307228E-03   0.0000000000E+00   0.0000000000E+00   0.7547033234E+00  -0.2751375510E-01   0.0000000000E+00  -0.2126475743E-01
  -0.1697041240E+00   0.1007174420E+00   0.2958780312E-03   0.7174410478E-03   0.0000000000E+00   0.0000000000E+00   0.1080116958E+01   0.7825196871E-03   0.0000000000E+00  -0.2469839345E-03
  -0.1762711423E+00   0.9165473400E-01   0.2202527009E-03   0.7645722960E-03   0.0000000000E+00   0.0000000000E+00   0.1027297720E+01  -0.8396223371E-03   0.0000000000E+00  -0.3062320853E-02
   0.7287731074E-01  -0.8358457743E-01   0.2910733741E-02   0.7975616740E-03   0.0000000000E+00   0.0000000000E+00  -0.2300076831E-01   0.1162280994E-01   0.0000000000E+00  -0.1637665942E-01
   0.8301095267E-01  -0.9913988255E-01   0.3010954474E-02   0.8601184529E-03   0.0000000000E+00   0.0000000000E+00  -0.1342988820E+00  -0.5988398734E-03   0.0000000000E+00  -0.7589407344E-03
   0.6795476201E-01  -0.9143218341E-01   0.2971476010E-02   0.7588868929E-03   0.0000000000E+00   0.0000000000E+00  -0.8390298243E-01   0.5074702078E-02   0.0000000000E+00  -0.4803960375E-02
   0.7302373968E-01  -0.9920788249E-01   0.3023739383E-02   0.7921185126E-03   0.0000000000E+00   0.0000000000E+00  -0.1472250688E+00  -0.2281684238E-02   0.0000000000E+00   0.8234184407E-03
   0.7794709820E-01  -0.9136071443E-01   0.2963814302E-02   0.8303558711E-03   0.0000000000E+00   0.0000000000E+00  -0.7770268126E-01   0.3989532832E-02   0.0000000000E+00  -0.9046399561E-02
   0.4219857514E-01  -0.6326320877E-01   0.2738676039E-02   0.5516697264E-03   0.0000000000E+00   0.0000000000E+00   0.3906803850E-01   0.4911164920E-01   0.0000000000E+00   0.5005376642E-02
   0.4179959451E-01  -0.6922817712E-01   0.2793026007E-02   0.5458097835E-03   0.0000000000E+00   0.0000000000E+00   0.1421590131E-01   0.3460874926E-01   0.0000000000E+00   0.2010540270E-01
   0.6083486936E-01  -0.2495274545E-01   0.2418621961E-02   0.6946563501E-03   0.0000000000E+00   0.0000000000E+00   0.4897700175E+00   0.3490221380E-01   0.0000000000E+00  -0.1742162572E+00
   0.5870290889E-01  -0.3261287315E-01   0.2476908690E-02   0.6899778511E-03   0.0000000000E+00   0.0000000000E+00   0.3966944919E+00   0.7056136946E-01   0.0000000000E+00  -0.1679093492E+00
   0.5678957888E-01  -0.2621869849E-01   0.2412578076E-02   0.6706406092E-03   0.0000000000E+00   0.0000000000E+00   0.4699204151E+00   0.5950108406E-01   0.0000000000E+00  -0.1880273920E+00
   0.5572526157E-01  -0.3004948679E-01   0.2443384369E-02   0.6675769072E-03   0.0000000000E+00   0.0000000000E+00   0.4176410792E+00   0.7457747263E-01   0.0000000000E+00  -0.1832432767E+00
   0.5976818830E-01  -0.2878200003E-01   0.2447064499E-02   0.6931263695E-03   0.0000000000E+00   0.0000000000E+00   0.4426054272E+00   0.5357734593E-01   0.0000000000E+00  -0.1721723363E+00
   0.1329773277E+00  -0.9890998822E-01   0.2977332738E-02   0.1090012778E-02   0.0000000000E+00   0.0000000000E+00  -0.1058825059E-01   0.1035364702E-02   0.0000000000E+00  -0.1261294301E-02
  -0.3412754584E-01   0.3497013963E-01   0.1207842162E-02   0.3246232283E-03   0.0000000000E+00   0.0000000000E+00   0.1049079259E+01   0.4699473632E-01   0.0000000000E+00  -0.2133645246E+00
  -0.3417733601E-01   0.2548213356E-01   0.1163606392E-02   0.3629890561E-03   0.0000000000E+00   0.0000000000E+00   0.1108231153E+01  -0.4705990018E-02   0.0000000000E+00  -0.1402827352E+00
  -0.3169642344E-01   0.3048643539E-01   0.1212690463E-02   0.3249577876E-03   0.0000000000E+00   0.0000000000E+00   0.1107938603E+01   0.5198907138E-01   0.0000000000E+00  -0.1998455426E+00
  -0.3660455200E-01   0.2996418333E-01   0.1162664601E-02   0.3610000345E-03   0.0000000000E+00   0.0000000000E+00   0.1056860962E+01  -0.7765381981E-02   0.0000000000E+00  -0.1577659907E+00
  -0.1091329741E+00   0.1005218602E+00   0.8670249279E-03   0.5218592203E-03   0.0000000000E+00   0.0000000000E+00   0.9829823539E+00   0.2672507525E-02   0.0000000000E+00  -0.1904295360E-02
   0.6353040878E-01  -0.8384625655E-01   0.2915152376E-02   0.7276158508E-03   0.0000000000E+00   0.0000000000E+00  -0.3655262098E-01   0.1071632637E-01   0.0000000000E+00  -0.9972340253E-03
   0.8277405588E-01  -0.8344445230E-01   0.2908585383E-02   0.8638738961E-03   0.0000000000E+00   0.0000000000E+00  -0.4533344894E-02   0.7523645384E-02   0.0000000000E+00  -0.2729329343E-01
   0.8783927949E-01  -0.9122395803E-01   0.2957102086E-02   0.8933068651E-03   0.0000000000E+00   0.0000000000E+00  -0.5833150928E-01   0.2468460191E-02   0.0000000000E+00  -0.1667532006E-01
  -0.3751306257E-01   0.3965505742E-01   0.1194380026E-02   0.3294625181E-03   0.0000000000E+00   0.0000000000E+00   0.9977373600E+00   0.2858021956E-01   0.0000000000E+00  -0.2128546456E+00
  -0.3038570641E-01   0.4006426120E-01   0.1258034388E-02   0.2850302003E-03   0.0000000000E+00   0.0000000000E+00   0.9935160954E+00   0.1040856755E+00   0.0000000000E+00  -0.2243893773E+00
  -0.3377342559E-01   0.4474976764E-01   0.1242369812E-02   0.2904619358E-03   0.0000000000E+00   0.0000000000E+00   0.9489901716E+00   0.8139161526E-01   0.0000000000E+00  -0.2264357929E+00
  -0.7875033503E-01   0.8443711428E-01   0.1038632967E-02   0.4189657838E-03   0.0000000000E+00   0.0000000000E+00   0.8288739424E+00  -0.8703184923E-02   0.0000000000E+00  -0.9260386733E-01
   0.1529787933E+00  -0.9885976776E-01   0.2978787286E-02   0.1140233241E-02   0.0000000000E+00   0.0000000000E+00   0.2542964645E-01   0.1208477573E-02   0.0000000000E+00  -0.8093923902E-03
   0.1575060879E+00  -0.9035014830E-01   0.2963969873E-02   0.1147258101E-02   0.0000000000E+00   0.0000000000E+00   0.7313780971E-01  -0.1787234779E-02   0.0000000000E+00  -0.9874222775E-02
   0.9879056174E-01  -0.1043436216E-01   0.2514203939E-02   0.8558230439E-03   0.0000000000E+00   0.0000000000E+00   0.5534042557E+00  -0.7209889966E-01   0.0000000000E+00  -0.4534229805E-01
   0.8566529577E-01  -0.7374554829E-02   0.2425561567E-02   0.7864647011E-03   0.0000000000E+00   0.0000000000E+00   0.5991862984E+00  -0.7493958116E-01   0.0000000000E+00  -0.6407797223E-01
   0.8597969110E-01  -0.1666472111E-01   0.2481146101E-02   0.8137579904E-03   0.0000000000E+00   0.0000000000E+00   0.5380415284E+00  -0.5304768592E-01   0.0000000000E+00  -0.8254484558E-01
   0.9222892601E-01  -0.8903551316E-02   0.2470880013E-02   0.8220510237E-03   0.0000000000E+00   0.0000000000E+00   0.5748485888E+00  -0.7409083046E-01   0.0000000000E+00  -0.5338329114E-01
   0.8582226278E-01  -0.1201912463E-01   0.2453126876E-02   0.8006246716E-03   0.0000000000E+00   0.0000000000E+00   0.5688174813E+00  -0.6317058902E-01   0.0000000000E+00  -0.7418210634E-01
   0.9238402558E-01  -0.1354859619E-01   0.2496570478E-02   0.8357359079E-03   0.0000000000E+00   0.0000000000E+00   0.5461320066E+00  -0.6275342125E-01   0.0000000000E+00  -0.6315747949E-01
  -0.9002319156E-01   0.1115419745E-01   0.6261673362E-03   0.7604540540E-03   0.0000000000E+00   0.0000000000E+00   0.6809032999E+00  -0.1031464063E+00   0.0000000000E+00   0.1849022810E-02
  -0.8011305264E-01   0.4307148587E-02   0.6556219612E-03   0.7357316373E-03   0.0000000000E+00   0.0000000000E+00   0.6758055935E+00  -0.9987322768E-01   0.0000000000E+00   0.3579274569E-01
  -0.7965189212E-01   0.1537938248E-01   0.7184297760E-03   0.6922550766E-03   0.0000000000E+00   0.0000000000E+00   0.7349535591E+00  -0.1149345615E+00   0.0000000000E+00  -0.2797301284E-02
  -0.8506748341E-01   0.7730997025E-02   0.6415370937E-03   0.7484167351E-03   0.0000000000E+00   0.0000000000E+00   0.6796540841E+00  -0.1005755508E+00   0.0000000000E+00   0.1813588637E-01
  -0.7988211917E-01   0.9843773077E-02   0.6873790319E-03   0.7145012371E-03   0.0000000000E+00   0.0000000000E+00   0.7046657452E+00  -0.1072785997E+00   0.0000000000E+00   0.1700527242E-01
  -0.8483842801E-01   0.1326752062E-01   0.6714086852E-03   0.7270852194E-03   0.0000000000E+00   0.0000000000E+00   0.7068305360E+00  -0.1093254191E+00   0.0000000000E+00  -0.1271817656E-03
  -0.5859885451E-01   0.8434745534E-01   0.1182026293E-02   0.3066496430E-03   0.0000000000E+00   0.0000000000E+00   0.7347255982E+00  -0.7240254672E-03   0.0000000000E+00  -0.1124995966E+00
  -0.3037311019E-02  -0.3811368490E-01   0.5382931615E-03   0.1626260997E-03   0.0000000000E+00   0.0000000000E+00   0.8476944514E-03  -0.1769397138E+00   0.0000000000E+00  -0.1129158540E-01
   0.5681209835E-03  -0.3598705002E-01   0.5681209835E-03   0.1139186807E-03   0.0000000000E+00   0.0000000000E+00  -0.1312370503E-02  -0.2576031390E+00   0.0000000000E+00  -0.4180390768E-02
  -0.1777850946E-01  -0.3593823068E-01   0.5571905385E-03   0.3425354216E-03   0.0000000000E+00   0.0000000000E+00   0.5691632812E-01   0.6257749384E-01   0.0000000000E+00   0.4577363896E-01
   0.1234154076E-01  -0.5010435591E-01   0.2600785803E-02   0.2478821928E-03   0.0000000000E+00   0.0000000000E+00   0.1650976678E-02  -0.8185251137E-01   0.0000000000E+00   0.3362482389E-01
  -0.3477336826E-01  -0.4078860053E-01   0.4884192365E-03   0.5212702721E-03   0.0000000000E+00   0.0000000000E+00   0.1609254171E+00   0.1308798679E+00   0.0000000000E+00   0.1051539060E+00
  -0.3197435168E-01  -0.3685767779E-01   0.5357873170E-03   0.4967468140E-03   0.0000000000E+00   0.0000000000E+00   0.1750074991E+00   0.1439690436E+00   0.0000000000E+00   0.1286628084E+00
  -0.2983826667E-01  -0.4092048629E-01   0.4914972304E-03   0.4723541060E-03   0.0000000000E+00   0.0000000000E+00   0.1205899082E+00   0.1122911405E+00   0.0000000000E+00   0.7705233478E-01
  -0.1380779227E-01  -0.4758463315E-01   0.4242844262E-03   0.2960685529E-03   0.0000000000E+00   0.0000000000E+00   0.1011382351E-01  -0.4519199992E-01   0.0000000000E+00  -0.2681246665E-01
  -0.1717921804E-01  -0.4443791626E-01   0.4576287633E-03   0.3335017352E-03   0.0000000000E+00   0.0000000000E+00   0.1940864761E-01   0.4025902377E-02   0.0000000000E+00  -0.1255637734E-01
  -0.4429242370E-01  -0.7466111189E-03   0.8718707951E-03   0.5502058611E-03   0.0000000000E+00   0.0000000000E+00   0.8109111961E+00  -0.5318330629E-01   0.0000000000E+00   0.1809254581E+00
  -0.3928753926E-01   0.1138684914E-01   0.1016678244E-02   0.4660861396E-03   0.0000000000E+00   0.0000000000E+00   0.1000541321E+01  -0.8648880608E-01   0.0000000000E+00   0.7544283313E-01
  -0.4812160380E-01  -0.8679657895E-02   0.7748020023E-03   0.5998679451E-03   0.0000000000E+00   0.0000000000E+00   0.6968095746E+00  -0.1786040543E-01   0.0000000000E+00   0.2023744961E+00
  -0.9588598978E-01  -0.7428089804E-01   0.1403116207E-03   0.9530233572E-03   0.0000000000E+00   0.0000000000E+00   0.9796538618E-01   0.2112450738E-02   0.0000000000E+00   0.4991486302E-01
   0.5880019961E-01  -0.1757772243E-01   0.2346655013E-02   0.6687978740E-03   0.0000000000E+00   0.0000000000E+00   0.5735966151E+00   0.1142056220E-01   0.0000000000E+00  -0.1819006054E+00
   0.5769850756E-01  -0.2195117039E-01   0.2378732663E-02   0.6702489055E-03   0.0000000000E+00   0.0000000000E+00   0.5225987204E+00   0.3260518086E-01   0.0000000000E+00  -0.1882625072E+00
   0.3779385688E-01  -0.4933960520E-01   0.2601985684E-02   0.5163869980E-03   0.0000000000E+00   0.0000000000E+00   0.9348276829E-01   0.8891481457E-01   0.0000000000E+00  -0.4244243785E-01
   0.3661624327E-01  -0.7426439313E-01   0.2838503365E-02   0.4955372733E-03   0.0000000000E+00   0.0000000000E+00  -0.1208380978E-01   0.1474774642E-01   0.0000000000E+00   0.3871957876E-01
   0.5495296431E-01  -0.3448723672E-01   0.2482038110E-02   0.6652507751E-03   0.0000000000E+00   0.0000000000E+00   0.3589641494E+00   0.8990613501E-01   0.0000000000E+00  -0.1658988974E+00
   0.5641212658E-01  -0.3921561983E-01   0.2529829481E-02   0.6777539672E-03   0.0000000000E+00   0.0000000000E+00   0.3065312033E+00   0.9160848133E-01   0.0000000000E+00  -0.1465034119E+00
   0.4964538457E-01  -0.4177225966E-01   0.2539345775E-02   0.6257758397E-03   0.0000000000E+00   0.0000000000E+00   0.2463731002E+00   0.1121168883E+00   0.0000000000E+00  -0.1312229473E+00
   0.1771805837E-01   0.4661499334E-01   0.1608392468E-02   0.2024173410E-03   0.0000000000E+00   0.0000000000E+00   0.8701018299E+00   0.2287154462E+00   0.0000000000E+00   0.1579612987E+00
   0.1582185232E-01   0.4239924360E-01   0.1598636215E-02   0.2020012038E-03   0.0000000000E+00   0.0000000000E+00   0.9110278553E+00   0.2716936047E+00   0.0000000000E+00   0.1552274807E+00
   0.2081261234E-01   0.4337135212E-01   0.1634173443E-02   0.2172093160E-03   0.0000000000E+00   0.0000000000E+00   0.9226515157E+00   0.2262491145E+00   0.0000000000E+00   0.1881506488E+00
   0.2591210449E-01   0.4640606330E-01   0.1668041894E-02   0.2321852954E-03   0.0000000000E+00   0.0000000000E+00   0.9063251625E+00   0.1679765270E+00   0.0000000000E+00   0.2055873560E+00
   0.2933550290E-01   0.4067519306E-01   0.1706093901E-02   0.2609640577E-03   0.0000000000E+00   0.0000000000E+00   0.9868554666E+00   0.1602147936E+00   0.0000000000E+00   0.2338233463E+00
   0.3133491054E-01   0.4694824899E-01   0.1708650936E-02   0.2558552884E-03   0.0000000000E+00   0.0000000000E+00   0.9152831829E+00   0.1238671666E+00   0.0000000000E+00   0.2160362716E+00
  -0.2879702771E-01   0.3455378947E-01   0.1255533585E-02   0.2919592703E-03   0.0000000000E+00   0.0000000000E+00   0.1065366616E+01   0.1237120358E+00   0.0000000000E+00  -0.2331903112E+00
  -0.5831935125E-01   0.6893353358E-01   0.1126722853E-02   0.3523845812E-03   0.0000000000E+00   0.0000000000E+00   0.8088880425E+00  -0.1534389545E-01   0.0000000000E+00  -0.1729973042E+00
  -0.4813764194E-01   0.6847994294E-01   0.1198672262E-02   0.2971765353E-03   0.0000000000E+00   0.0000000000E+00   0.7817345144E+00   0.1124237482E-01   0.0000000000E+00  -0.1800241981E+00
  -0.4326008760E-01   0.7612810615E-01   0.1253804795E-02   0.2513486459E-03   0.0000000000E+00   0.0000000000E+00   0.7132019206E+00   0.1504025296E-01   0.0000000000E+00  -0.1443462617E+00
  -0.5343550603E-01   0.7657671814E-01   0.1188142466E-02   0.3015706378E-03   0.0000000000E+00   0.0000000000E+00   0.7461856758E+00  -0.7736195928E-03   0.0000000000E+00  -0.1438747911E+00
   0.6712513231E-01  -0.3154421324E-01   0.2498051112E-02   0.7425797552E-03   0.0000000000E+00   0.0000000000E+00   0.4249270840E+00   0.3374876099E-01   0.0000000000E+00  -0.1463563114E+00
   0.6790154381E-01  -0.2701660689E-01   0.2465664914E-02   0.7405088128E-03   0.0000000000E+00   0.0000000000E+00   0.4701239081E+00   0.1643859194E-01   0.0000000000E+00  -0.1464542409E+00
   0.6475641154E-01  -0.2372103831E-01   0.2425949537E-02   0.7163817942E-03   0.0000000000E+00   0.0000000000E+00   0.5033368555E+00   0.1758706843E-01   0.0000000000E+00  -0.1591673192E+00
   0.6398088378E-01  -0.2824816438E-01   0.2459219483E-02   0.7189330227E-03   0.0000000000E+00   0.0000000000E+00   0.4549804395E+00   0.3233096788E-01   0.0000000000E+00  -0.1582839192E+00
   0.6193734190E-01  -0.2057873476E-01   0.2387324804E-02   0.6937680432E-03   0.0000000000E+00   0.0000000000E+00   0.5353938216E+00   0.1152902346E-01   0.0000000000E+00  -0.1680788736E+00
  -0.9874489666E-02   0.4426606735E-01   0.1423543734E-02   0.1925899541E-03   0.0000000000E+00   0.0000000000E+00   0.8774258912E+00   0.2703569006E+00   0.0000000000E+00  -0.1189020760E+00
  -0.4471515968E-02   0.4211212503E-01   0.1459612782E-02   0.1848842288E-03   0.0000000000E+00   0.0000000000E+00   0.8919082195E+00   0.3178692938E+00   0.0000000000E+00  -0.7449162819E-01
  -0.6764190810E-02   0.4734650536E-01   0.1446117110E-02   0.1839501644E-03   0.0000000000E+00   0.0000000000E+00   0.8417943204E+00   0.2562174305E+00   0.0000000000E+00  -0.8375555509E-01
  -0.5122301264E-01  -0.5416705791E-01   0.3373669563E-03   0.6605949918E-03   0.0000000000E+00   0.0000000000E+00   0.1463524290E+00   0.8257520023E-01   0.0000000000E+00   0.6713033151E-01
  -0.6238342036E-01  -0.5161356796E-01   0.3432859419E-03   0.7452232437E-03   0.0000000000E+00   0.0000000000E+00   0.2175573134E+00   0.6498869323E-01   0.0000000000E+00   0.9422222842E-01
  -0.5195103819E-01  -0.4796774558E-01   0.3927699073E-03   0.6674317204E-03   0.0000000000E+00   0.0000000000E+00   0.2109546017E+00   0.9142731489E-01   0.0000000000E+00   0.1014165439E+00
  -0.5753284469E-01  -0.4669116184E-01   0.3941268111E-03   0.7095809649E-03   0.0000000000E+00   0.0000000000E+00   0.2434601737E+00   0.7741917454E-01   0.0000000000E+00   0.1109478751E+00
  -0.5680200559E-01  -0.5288863710E-01   0.3415373129E-03   0.7045849953E-03   0.0000000000E+00   0.0000000000E+00   0.1848181705E+00   0.7452664772E-01   0.0000000000E+00   0.8243914108E-01
  -0.4259986480E-01  -0.3169365129E-01   0.5725691975E-03   0.5935589055E-03   0.0000000000E+00   0.0000000000E+00   0.3497528292E+00   0.1317427798E+00   0.0000000000E+00   0.1974646627E+00
   0.1675063999E+00   0.4103590205E-01   0.2761336916E-02   0.9242783457E-03   0.0000000000E+00   0.0000000000E+00   0.7363034757E+00  -0.2506340611E-01   0.0000000000E+00   0.1594460637E-01
   0.1774943339E+00   0.2597937035E-01   0.2846808930E-02   0.9847716546E-03   0.0000000000E+00   0.0000000000E+00   0.6553971699E+00  -0.2746174824E-01   0.0000000000E+00   0.8988912721E-02
   0.1766058522E+00   0.3613296931E-01   0.2828883157E-02   0.9541291073E-03   0.0000000000E+00   0.0000000000E+00   0.7095806881E+00  -0.2316849660E-01   0.0000000000E+00   0.1067042674E-01
   0.1683995083E+00   0.3088401226E-01   0.2783890322E-02   0.9566281608E-03   0.0000000000E+00   0.0000000000E+00   0.6824252523E+00  -0.3012166873E-01   0.0000000000E+00   0.1372544219E-01
   0.5440377490E-01   0.2402789715E-02   0.2156217105E-02   0.5829774851E-03   0.0000000000E+00   0.0000000000E+00   0.8001928368E+00  -0.8122618251E-01   0.0000000000E+00  -0.1227733273E+00
  -0.5234487696E-01  -0.8020748022E-03   0.8118751404E-03   0.6005198078E-03   0.0000000000E+00   0.0000000000E+00   0.7615091969E+00  -0.7059244235E-01   0.0000000000E+00   0.1417289617E+00
  -0.4838319667E-01  -0.3285440121E-02   0.8199160339E-03   0.5848794593E-03   0.0000000000E+00   0.0000000000E+00   0.7606253990E+00  -0.4467271442E-01   0.0000000000E+00   0.1769141289E+00
  -0.4825543473E-01   0.1736984324E-02   0.8624954747E-03   0.5660763441E-03   0.0000000000E+00   0.0000000000E+00   0.8124653946E+00  -0.7690773074E-01   0.0000000000E+00   0.1414146717E+00
  -0.1661701525E+00  -0.1868410442E-01   0.1350915199E-03   0.1081706580E-02   0.0000000000E+00   0.0000000000E+00   0.4324233058E+00  -0.3548262335E-01   0.0000000000E+00   0.6415006837E-02
  -0.1645923238E+00  -0.3903174797E-01   0.1089891982E-03   0.1115809935E-02   0.0000000000E+00   0.0000000000E+00   0.3326101865E+00  -0.2805516220E-01   0.0000000000E+00   0.1540807092E-01
  -0.1744428308E+00  -0.2390573315E-01   0.9569220246E-04   0.1102149951E-02   0.0000000000E+00   0.0000000000E+00   0.4040960495E+00  -0.3076741140E-01   0.0000000000E+00   0.6192702540E-02
  -0.1736499143E+00  -0.3407968726E-01   0.8665773566E-04   0.1119068338E-02   0.0000000000E+00   0.0000000000E+00   0.3547075540E+00  -0.2698195549E-01   0.0000000000E+00   0.9737755221E-02
  -0.1653808518E+00  -0.2885676729E-01   0.1224261855E-03   0.1099916213E-02   0.0000000000E+00   0.0000000000E+00   0.3821187425E+00  -0.3261440871E-01   0.0000000000E+00   0.1112088012E-01
   0.4769858895E-01   0.4087074929E-01   0.1864431350E-02   0.3706112878E-03   0.0000000000E+00   0.0000000000E+00   0.9635600417E+00  -0.2290318337E-01   0.0000000000E+00   0.1929851947E+00
   0.4338734209E-01   0.3604566986E-01   0.1845504891E-02   0.3616840587E-03   0.0000000000E+00   0.0000000000E+00   0.1011589331E+01  -0.1261235331E-01   0.0000000000E+00   0.1842251545E+00
   0.4855601715E-01   0.3497825174E-01   0.1897374545E-02   0.4004089415E-03   0.0000000000E+00   0.0000000000E+00   0.9763586221E+00  -0.5049703472E-01   0.0000000000E+00   0.1529144867E+00
   0.4718315267E-01   0.1942791249E-01   0.1971152074E-02   0.4619529894E-03   0.0000000000E+00   0.0000000000E+00   0.9882484723E+00  -0.9664001822E-01   0.0000000000E+00   0.2492800235E-01
   0.5098496864E-01   0.2330894669E-01   0.1981866736E-02   0.4694078900E-03   0.0000000000E+00   0.0000000000E+00   0.9573205893E+00  -0.1018366423E+00   0.0000000000E+00   0.5033114626E-01
  -0.3642524548E-01  -0.3645384245E-01   0.5341195222E-03   0.5393519536E-03   0.0000000000E+00   0.0000000000E+00   0.2318429306E+00   0.1446102857E+00   0.0000000000E+00   0.1532112960E+00
  -0.4056180536E-01  -0.3551846954E-01   0.5366924421E-03   0.5763300565E-03   0.0000000000E+00   0.0000000000E+00   0.2745780923E+00   0.1362007700E+00   0.0000000000E+00   0.1684638317E+00
  -0.2204557061E-01  -0.4531876801E-01   0.4463370912E-03   0.3872284858E-03   0.0000000000E+00   0.0000000000E+00   0.4488404982E-01   0.4689532616E-01   0.0000000000E+00   0.1217562680E-01
  -0.2802621910E-01  -0.4604828495E-01   0.4361089002E-03   0.4504532508E-03   0.0000000000E+00   0.0000000000E+00   0.6732220824E-01   0.8132105164E-01   0.0000000000E+00   0.3003527441E-01
  -0.2003738996E-01  -0.4017435896E-01   0.5052875356E-03   0.3668726355E-03   0.0000000000E+00   0.0000000000E+00   0.5083035085E-01   0.4813124450E-01   0.0000000000E+00   0.2389517640E-01
   0.1100321641E-01   0.4219492612E-01   0.1564664450E-02   0.1904749204E-03   0.0000000000E+00   0.0000000000E+00   0.9020923593E+00   0.3049039026E+00   0.0000000000E+00   0.1126916023E+00
   0.2331077118E-01  -0.5179426153E-01   0.2622086481E-02   0.3670892673E-03   0.0000000000E+00   0.0000000000E+00   0.1818469350E-01   0.1007419633E-01   0.0000000000E+00   0.2423455868E-01
   0.1710176856E-01  -0.5123952126E-01   0.2614556060E-02   0.3003207371E-03   0.0000000000E+00   0.0000000000E+00   0.7263766071E-02  -0.3767939108E-01   0.0000000000E+00   0.2845165060E-01
   0.6070744927E-01   0.8721419753E-02   0.2158846072E-02   0.5958500827E-03   0.0000000000E+00   0.0000000000E+00   0.8051455377E+00  -0.1093326848E+00   0.0000000000E+00  -0.6382783038E-01
   0.5578068645E-01   0.7384089473E-02   0.2129659054E-02   0.5715854433E-03   0.0000000000E+00   0.0000000000E+00   0.8297135744E+00  -0.1018550990E+00   0.0000000000E+00  -0.8668469210E-01
   0.5932826274E-01   0.3740335937E-02   0.2183129142E-02   0.6074580671E-03   0.0000000000E+00   0.0000000000E+00   0.7734958480E+00  -0.9212704665E-01   0.0000000000E+00  -0.9742950768E-01
   0.8187270629E-01   0.1989464116E-01   0.2252479089E-02   0.6702228608E-03   0.0000000000E+00   0.0000000000E+00   0.7580959390E+00  -0.1184831087E+00   0.0000000000E+00   0.1983392301E-01
   0.7067605839E-01   0.2391099736E-01   0.2145670189E-02   0.5902125625E-03   0.0000000000E+00   0.0000000000E+00   0.8255636465E+00  -0.1245238904E+00   0.0000000000E+00   0.3663965960E-01
   0.8042722083E-01   0.2491001970E-01   0.2216107033E-02   0.6418655980E-03   0.0000000000E+00   0.0000000000E+00   0.7830658375E+00  -0.1184291332E+00   0.0000000000E+00   0.3894495102E-01
   0.7482882660E-01   0.2691793790E-01   0.2162635995E-02   0.6016005970E-03   0.0000000000E+00   0.0000000000E+00   0.8177450527E+00  -0.1206282714E+00   0.0000000000E+00   0.4915949796E-01
   0.7627541263E-01   0.2190367082E-01   0.2200101225E-02   0.6310692183E-03   0.0000000000E+00   0.0000000000E+00   0.7905716369E+00  -0.1217630071E+00   0.0000000000E+00   0.2790463384E-01
  -0.9873977936E-01   0.6839319440E-01   0.8120324393E-03   0.5875987020E-03   0.0000000000E+00   0.0000000000E+00   0.8577083307E+00  -0.4077447153E-01   0.0000000000E+00  -0.8929371343E-01
  -0.1039103053E+00   0.7627843694E-01   0.8038796541E-03   0.5856789426E-03   0.0000000000E+00   0.0000000000E+00   0.8876891643E+00  -0.2472161404E-01   0.0000000000E+00  -0.6885008770E-01
  -0.1140003554E+00   0.7591875030E-01   0.7202945814E-03   0.6364447983E-03   0.0000000000E+00   0.0000000000E+00   0.8911585546E+00  -0.2211174458E-01   0.0000000000E+00  -0.5348793406E-01
  -0.1088277127E+00   0.6803579123E-01   0.7305563473E-03   0.6406405309E-03   0.0000000000E+00   0.0000000000E+00   0.8623822444E+00  -0.3522622453E-01   0.0000000000E+00  -0.7140816109E-01
  -0.1490787487E+00   0.2969197589E-01   0.3167472762E-03   0.9243491859E-03   0.0000000000E+00   0.0000000000E+00   0.6819159112E+00  -0.4125644351E-01   0.0000000000E+00  -0.2121141275E-01
  -0.1498395467E+00   0.1079728361E-01   0.2689842597E-03   0.9807767304E-03   0.0000000000E+00   0.0000000000E+00   0.5879259813E+00  -0.4713979250E-01   0.0000000000E+00  -0.1019340458E-01
  -0.1576345434E+00   0.2517427307E-01   0.2539885788E-03   0.9580309657E-03   0.0000000000E+00   0.0000000000E+00   0.6562915176E+00  -0.3661157211E-01   0.0000000000E+00  -0.1527141463E-01
  -0.1580114363E+00   0.1572613919E-01   0.2336056680E-03   0.9854578912E-03   0.0000000000E+00   0.0000000000E+00   0.6083711014E+00  -0.3981703968E-01   0.0000000000E+00  -0.1086973509E-01
  -0.1494594018E+00   0.2024539506E-01   0.2926192144E-03   0.9533273622E-03   0.0000000000E+00   0.0000000000E+00   0.6343652519E+00  -0.4522774058E-01   0.0000000000E+00  -0.1610392347E-01
  -0.4325626706E-01   0.9453302614E-02   0.9653874385E-03   0.5019171044E-03   0.0000000000E+00   0.0000000000E+00   0.9263080571E+00  -0.9436725506E-01   0.0000000000E+00   0.9094824527E-01
   0.1290032871E-01   0.4641026785E-01   0.1575326107E-02   0.1904830493E-03   0.0000000000E+00   0.0000000000E+00   0.8584852524E+00   0.2490388480E+00   0.0000000000E+00   0.1166804314E+00
   0.4402069492E-02   0.5046783022E-01   0.1518370002E-02   0.1755916225E-03   0.0000000000E+00   0.0000000000E+00   0.8036767718E+00   0.2365320609E+00   0.0000000000E+00   0.2912512625E-01
   0.1088037793E-01   0.5112731840E-01   0.1559506959E-02   0.1815558953E-03   0.0000000000E+00   0.0000000000E+00   0.8017312196E+00   0.2170511311E+00   0.0000000000E+00   0.8301178027E-01
   0.4235912215E-01  -0.7722916576E-01   0.2864428854E-02   0.5484062435E-03   0.0000000000E+00   0.0000000000E+00  -0.1465085972E-01   0.1895837958E-01   0.0000000000E+00   0.2567721299E-01
   0.5086492182E-01  -0.7815418156E-01   0.2871194817E-02   0.6244355376E-03   0.0000000000E+00   0.0000000000E+00  -0.1822655335E-01   0.2413582107E-01   0.0000000000E+00   0.1405600614E-01
   0.5351724397E-01  -0.5714598270E-01   0.2688768470E-02   0.6539452039E-03   0.0000000000E+00   0.0000000000E+00   0.1198442104E+00   0.7242914822E-01   0.0000000000E+00  -0.4923973375E-01
   0.6050575296E-01  -0.6095939147E-01   0.2728191763E-02   0.7092578296E-03   0.0000000000E+00   0.0000000000E+00   0.1173689563E+00   0.5858561668E-01   0.0000000000E+00  -0.5174519481E-01
  -0.1949350408E-01  -0.6840282482E-01   0.2157105229E-03   0.3586430775E-03   0.0000000000E+00   0.0000000000E+00  -0.2657227489E-02  -0.1042769646E-01   0.0000000000E+00  -0.4069765744E-01
   0.4283081664E-01  -0.5047317828E-01   0.2616896441E-02   0.5632615234E-03   0.0000000000E+00   0.0000000000E+00   0.1156313864E+00   0.9219314157E-01   0.0000000000E+00  -0.5374432264E-01
  -0.7002373181E-01  -0.9920789361E-01  -0.2373150515E-04   0.7921073917E-03   0.0000000000E+00   0.0000000000E+00  -0.1475003352E+00  -0.3375431823E-02   0.0000000000E+00  -0.9511572391E-03
  -0.5748763462E-01  -0.6551712240E-01   0.2335778792E-03   0.7082573034E-03   0.0000000000E+00   0.0000000000E+00   0.8277232456E-01   0.5110259725E-01   0.0000000000E+00   0.3457642639E-01
  -0.5377521312E-01  -0.7348707940E-01   0.1684059800E-03   0.6762681039E-03   0.0000000000E+00   0.0000000000E+00   0.2568434866E-01   0.3543309485E-01   0.0000000000E+00   0.8633084434E-02
  -0.4563681501E-01  -0.7249143862E-01   0.1775948854E-03   0.6067887755E-03   0.0000000000E+00   0.0000000000E+00   0.5255290879E-02   0.3483492147E-01   0.0000000000E+00  -0.1100839760E-01
  -0.4934550767E-01  -0.6451850009E-01   0.2464955301E-03   0.6417670108E-03   0.0000000000E+00   0.0000000000E+00   0.6550403002E-01   0.5330216213E-01   0.0000000000E+00   0.1787734469E-01
   0.9299959806E-01  -0.9907977803E-01   0.2999594464E-02   0.9202229709E-03   0.0000000000E+00   0.0000000000E+00  -0.1143079014E+00  -0.7098166538E-03   0.0000000000E+00  -0.1202295401E-02
   0.1217945762E+00  -0.6707555833E-01   0.2855214154E-02   0.1043371574E-02   0.0000000000E+00   0.0000000000E+00   0.1774073804E+00  -0.1212373373E-01   0.0000000000E+00  -0.5084661372E-01
   0.1072864299E+00  -0.7524818653E-01   0.2872756898E-02   0.9922486686E-03   0.0000000000E+00   0.0000000000E+00   0.1051568693E+00  -0.2821413139E-02   0.0000000000E+00  -0.4867634011E-01
   0.1171872780E+00  -0.7502743848E-01   0.2882087013E-02   0.1032051917E-02   0.0000000000E+00   0.0000000000E+00   0.1163830864E+00  -0.6192916809E-02   0.0000000000E+00  -0.4417212778E-01
   0.1118879273E+00  -0.6729289605E-01   0.2840082325E-02   0.1006978651E-02   0.0000000000E+00   0.0000000000E+00   0.1681895668E+00  -0.6457380854E-02   0.0000000000E+00  -0.5705876591E-01
   0.1630505516E+00  -0.7996205687E-01   0.2950151582E-02   0.1152130934E-02   0.0000000000E+00   0.0000000000E+00   0.1288872599E+00  -0.3909412666E-02   0.0000000000E+00  -0.1573929578E-01
   0.1796026059E+00  -0.6068705276E-01   0.2950859941E-02   0.1156983244E-02   0.0000000000E+00   0.0000000000E+00   0.2256073318E+00  -0.1371356941E-01   0.0000000000E+00  -0.1173978246E-01
   0.1873109511E+00  -0.5592644106E-01   0.2963783084E-02   0.1157638738E-02   0.0000000000E+00   0.0000000000E+00   0.2482246906E+00  -0.1515371608E-01   0.0000000000E+00  -0.7650644298E-02
   0.1792062325E+00  -0.5245363589E-01   0.2941350516E-02   0.1147576913E-02   0.0000000000E+00   0.0000000000E+00   0.2651515705E+00  -0.1736453470E-01   0.0000000000E+00  -0.1152132080E-01
   0.1742346318E-01   0.7582763894E-01   0.1580980780E-02   0.1532839414E-03   0.0000000000E+00   0.0000000000E+00   0.6015715143E+00   0.5681521512E-01   0.0000000000E+00   0.7175847748E-01
   0.1381311866E-01   0.6803006186E-01   0.1567898563E-02   0.1610095620E-03   0.0000000000E+00   0.0000000000E+00   0.6583766483E+00   0.8717234958E-01   0.0000000000E+00   0.7079703666E-01
   0.8913172622E-02   0.7568064298E-01   0.1537388402E-02   0.1415904776E-03   0.0000000000E+00   0.0000000000E+00   0.5831690778E+00   0.5971797387E-01   0.0000000000E+00   0.3237366433E-01
   0.1055322925E+00   0.2647734904E-01   0.2389338532E-02   0.7642796384E-03   0.0000000000E+00   0.0000000000E+00   0.7177490245E+00  -0.9381375050E-01   0.0000000000E+00   0.3896216648E-01
   0.1166002427E+00   0.3847860687E-01   0.2419178668E-02   0.7711029681E-03   0.0000000000E+00   0.0000000000E+00   0.7491681875E+00  -0.7248317569E-01   0.0000000000E+00   0.5109136865E-01
   0.9954365037E-01   0.4052194994E-01   0.2287429469E-02   0.6820489435E-03   0.0000000000E+00   0.0000000000E+00   0.7825053093E+00  -0.9077972359E-01   0.0000000000E+00   0.7140810552E-01
   0.1110653521E+00   0.3247823958E-01   0.2403343113E-02   0.7679538829E-03   0.0000000000E+00   0.0000000000E+00   0.7342500817E+00  -0.8246933601E-01   0.0000000000E+00   0.4570572382E-01
   0.1080728536E+00   0.3950197070E-01   0.2354211601E-02   0.7282700963E-03   0.0000000000E+00   0.0000000000E+00   0.7645943061E+00  -0.8187300953E-01   0.0000000000E+00   0.6070415591E-01
   0.1025385363E+00   0.3350041084E-01   0.2338948331E-02   0.7239247403E-03   0.0000000000E+00   0.0000000000E+00   0.7501752188E+00  -0.9264497488E-01   0.0000000000E+00   0.5421177322E-01
   0.1164846453E+00   0.7619205045E-01   0.2274397252E-02   0.6330155462E-03   0.0000000000E+00   0.0000000000E+00   0.8917044272E+00  -0.2196935194E-01   0.0000000000E+00   0.5405324406E-01
   0.4114087796E-01   0.5085551794E-01   0.1776443164E-02   0.2964219405E-03   0.0000000000E+00   0.0000000000E+00   0.8957152701E+00   0.4948820853E-01   0.0000000000E+00   0.2214826766E+00
   0.4746881086E-01   0.5227315519E-01   0.1822530764E-02   0.3277593908E-03   0.0000000000E+00   0.0000000000E+00   0.8863703301E+00   0.1511483115E-01   0.0000000000E+00   0.2105414173E+00
   0.4766951073E-01   0.5976018933E-01   0.1801762130E-02   0.3049063320E-03   0.0000000000E+00   0.0000000000E+00   0.8296476007E+00   0.1486483650E-01   0.0000000000E+00   0.1947102459E+00
   0.4134457457E-01   0.5834458239E-01   0.1758671270E-02   0.2755990940E-03   0.0000000000E+00   0.0000000000E+00   0.8343234786E+00   0.4655859789E-01   0.0000000000E+00   0.2062601957E+00
  -0.1574900419E-02   0.7464600656E-01   0.1484352441E-02   0.1406401575E-03   0.0000000000E+00   0.0000000000E+00   0.5934045437E+00   0.6771526032E-01   0.0000000000E+00  -0.1214733352E-01
  -0.2179438554E-01   0.7112753056E-01   0.1373075655E-02   0.1798462573E-03   0.0000000000E+00   0.0000000000E+00   0.6619596889E+00   0.6256932300E-01   0.0000000000E+00  -0.1162991693E+00
  -0.9244174898E-02   0.7263642243E-01   0.1443710002E-02   0.1507147330E-03   0.0000000000E+00   0.0000000000E+00   0.6132615431E+00   0.6960730563E-01   0.0000000000E+00  -0.5573108383E-01
  -0.1511641144E-01   0.7626617150E-01   0.1415834562E-02   0.1538414994E-03   0.0000000000E+00   0.0000000000E+00   0.5998854209E+00   0.5097898008E-01   0.0000000000E+00  -0.7209106809E-01
  -0.1592047777E-01   0.6749285259E-01   0.1402623131E-02   0.1717904882E-03   0.0000000000E+00   0.0000000000E+00   0.6775476647E+00   0.9257512280E-01   0.0000000000E+00  -0.9710863901E-01
   0.1606141923E+00   0.8406622470E-01   0.2624422264E-02   0.7602622960E-03   0.0000000000E+00   0.0000000000E+00   0.9747130705E+00  -0.2885127223E-02   0.0000000000E+00   0.1105248400E-01
   0.1580353955E+00   0.7390223181E-01   0.2625195526E-02   0.7920909094E-03   0.0000000000E+00   0.0000000000E+00   0.9138705926E+00  -0.9433616870E-02   0.0000000000E+00   0.1713342708E-01
   0.1573147219E+00   0.9209590954E-01   0.2576101905E-02   0.7207672448E-03   0.0000000000E+00   0.0000000000E+00   0.1019338335E+01  -0.1763943525E-02   0.0000000000E+00   0.7271310613E-02
   0.1525087349E+00   0.1006731178E+00   0.2508728925E-02   0.6731168296E-03   0.0000000000E+00   0.0000000000E+00   0.1066490419E+01   0.1233010721E-02   0.0000000000E+00   0.6571877868E-04
  -0.1579573692E+00  -0.8216723818E-01   0.4830075700E-04   0.1149967119E-02   0.0000000000E+00   0.0000000000E+00   0.1163756134E+00  -0.3306713478E-02   0.0000000000E+00   0.1546686493E-01
  -0.1553542788E+00  -0.7199016004E-01   0.7112119158E-04   0.1139464061E-02   0.0000000000E+00   0.0000000000E+00   0.1648974812E+00  -0.9753337777E-02   0.0000000000E+00   0.2135285137E-01
  -0.1547156462E+00  -0.9023409608E-01   0.3610182168E-04   0.1147602723E-02   0.0000000000E+00   0.0000000000E+00   0.7402128370E-01  -0.1903317878E-02   0.0000000000E+00   0.9860035053E-02
  -0.1499787918E+00  -0.9885975848E-01   0.2121421807E-04   0.1140242521E-02   0.0000000000E+00   0.0000000000E+00   0.2519868364E-01   0.1078054266E-02   0.0000000000E+00   0.6769117651E-03
  -0.3343430205E-01   0.7601196261E-01   0.1313883345E-02   0.2089509066E-03   0.0000000000E+00   0.0000000000E+00   0.6655791712E+00   0.3353572466E-01   0.0000000000E+00  -0.1300435759E+00
  -0.6348515734E-01   0.7670364746E-01   0.1118149060E-02   0.3568402613E-03   0.0000000000E+00   0.0000000000E+00   0.7949424858E+00  -0.1540767818E-01   0.0000000000E+00  -0.1372196300E+00
  -0.2535567638E-01   0.7756186511E-01   0.1362958715E-02   0.1771995089E-03   0.0000000000E+00   0.0000000000E+00   0.6200995812E+00   0.3844059349E-01   0.0000000000E+00  -0.1034616424E+00
  -0.2987472577E-01   0.6957603093E-01   0.1322283831E-02   0.2100005260E-03   0.0000000000E+00   0.0000000000E+00   0.7066657277E+00   0.5018924367E-01   0.0000000000E+00  -0.1481598246E+00
  -0.1455269440E+00  -0.4613039350E-01   0.1515610190E-03   0.1092641704E-02   0.0000000000E+00   0.0000000000E+00   0.3030050458E+00  -0.2936328406E-01   0.0000000000E+00   0.2995141514E-01
  -0.1534011190E+00  -0.5424053887E-01   0.1117759636E-03   0.1118906632E-02   0.0000000000E+00   0.0000000000E+00   0.2591738732E+00  -0.2206729700E-01   0.0000000000E+00   0.2533982687E-01
  -0.1500103304E+00  -0.6356501137E-01   0.9857361097E-04   0.1122643028E-02   0.0000000000E+00   0.0000000000E+00   0.2094453560E+00  -0.1491789159E-01   0.0000000000E+00   0.2842170668E-01
  -0.1421385203E+00  -0.5545382851E-01   0.1359936793E-03   0.1097419289E-02   0.0000000000E+00   0.0000000000E+00   0.2512391884E+00  -0.2295086836E-01   0.0000000000E+00   0.3363993865E-01
   0.8672602577E-01   0.7653931519E-01   0.2034598175E-02   0.4744453854E-03   0.0000000000E+00   0.0000000000E+00   0.8530380505E+00  -0.2718157728E-01   0.0000000000E+00   0.1046504733E+00
   0.9115695829E-01   0.5410653645E-01   0.2165301389E-02   0.5835882512E-03   0.0000000000E+00   0.0000000000E+00   0.8315060033E+00  -0.7517028201E-01   0.0000000000E+00   0.1075795116E+00
   0.8122039923E-01   0.5318451311E-01   0.2091016229E-02   0.5296283066E-03   0.0000000000E+00   0.0000000000E+00   0.8420174880E+00  -0.7623338619E-01   0.0000000000E+00   0.1283720534E+00
   0.8638512299E-01   0.6138457481E-01   0.2096808989E-02   0.5280686091E-03   0.0000000000E+00   0.0000000000E+00   0.8377190260E+00  -0.5947267240E-01   0.0000000000E+00   0.1191330450E+00
   0.7644851113E-01   0.6046112648E-01   0.2022471027E-02   0.4726836780E-03   0.0000000000E+00   0.0000000000E+00   0.8523252551E+00  -0.5771630543E-01   0.0000000000E+00   0.1444565267E+00
  -0.1511752065E+00   0.6432941056E-01   0.3835505075E-03   0.8163700613E-03   0.0000000000E+00   0.0000000000E+00   0.8617897136E+00  -0.1607819902E-01   0.0000000000E+00  -0.2346123962E-01
  -0.1450003389E+00   0.7441370967E-01   0.4593731205E-03   0.7623362705E-03   0.0000000000E+00   0.0000000000E+00   0.9145492305E+00  -0.1165032026E-01   0.0000000000E+00  -0.2330877052E-01
  -0.1567554473E+00   0.7269015524E-01   0.3578667238E-03   0.8007398414E-03   0.0000000000E+00   0.0000000000E+00   0.9078793838E+00  -0.9768257703E-02   0.0000000000E+00  -0.1649068405E-01
  -0.1732227775E+00  -0.4453016021E-01   0.7552148270E-04   0.1134429690E-02   0.0000000000E+00   0.0000000000E+00   0.3038117004E+00  -0.2300203011E-01   0.0000000000E+00   0.1221856284E-01
  -0.1629296761E+00  -0.5069179084E-01   0.9461485344E-04   0.1129914155E-02   0.0000000000E+00   0.0000000000E+00   0.2744474619E+00  -0.2191017736E-01   0.0000000000E+00   0.1885719626E-01
  -0.1715558434E+00  -0.5619144900E-01   0.6543459580E-04   0.1147287998E-02   0.0000000000E+00   0.0000000000E+00   0.2473758841E+00  -0.1611423842E-01   0.0000000000E+00   0.1431121382E-01
   0.1785238059E+00  -0.4289232599E-01   0.2929222888E-02   0.1134413912E-02   0.0000000000E+00   0.0000000000E+00   0.3111797197E+00  -0.2330806687E-01   0.0000000000E+00  -0.1075955621E-01
   0.1761365441E+00   0.4656304503E-01   0.2812436107E-02   0.9213657322E-03   0.0000000000E+00   0.0000000000E+00   0.7659864389E+00  -0.1903427499E-01   0.0000000000E+00   0.1199190698E-01
   0.1657729517E+00   0.5267438198E-01   0.2728856723E-02   0.8835708754E-03   0.0000000000E+00   0.0000000000E+00   0.7991104851E+00  -0.1975552954E-01   0.0000000000E+00   0.1715814408E-01
   0.1744071893E+00   0.5820158343E-01   0.2784048271E-02   0.8807167349E-03   0.0000000000E+00   0.0000000000E+00   0.8306075569E+00  -0.1275227378E-01   0.0000000000E+00   0.1180226450E-01
   0.1781604478E+00   0.6112517744E-02   0.2873454773E-02   0.1037969674E-02   0.0000000000E+00   0.0000000000E+00   0.5529332155E+00  -0.3233792695E-01   0.0000000000E+00   0.3714940565E-02
   0.1543814300E+00  -0.8413665771E-02   0.2781530951E-02   0.1032959829E-02   0.0000000000E+00   0.0000000000E+00   0.4921855521E+00  -0.4575354732E-01   0.0000000000E+00  -0.3515075819E-02
   0.1622322503E+00  -0.3632425010E-02   0.2808929292E-02   0.1037358160E-02   0.0000000000E+00   0.0000000000E+00   0.5113265294E+00  -0.4090625622E-01   0.0000000000E+00   0.1440504342E-03
   0.1619683265E+00   0.5711147087E-02   0.2790397534E-02   0.1013854047E-02   0.0000000000E+00   0.0000000000E+00   0.5578652204E+00  -0.4113704387E-01   0.0000000000E+00   0.5768482847E-02
   0.1541142387E+00   0.9300926423E-03   0.2759731737E-02   0.1009642026E-02   0.0000000000E+00   0.0000000000E+00   0.5380527459E+00  -0.4699934977E-01   0.0000000000E+00   0.3194222356E-02
  -0.1748843625E+00  -0.3976700554E-02   0.1165135306E-03   0.1061484026E-02   0.0000000000E+00   0.0000000000E+00   0.5023934600E+00  -0.3328240853E-01   0.0000000000E+00  -0.5781990160E-03
  -0.6084482393E-01   0.5179657836E-02   0.7936430683E-03   0.6282923258E-03   0.0000000000E+00   0.0000000000E+00   0.7624808356E+00  -0.1012277319E+00   0.0000000000E+00   0.7646134696E-01
  -0.6074140754E-01  -0.8279344808E-03   0.7528758552E-03   0.6498052892E-03   0.0000000000E+00   0.0000000000E+00   0.7149066019E+00  -0.7975082989E-01   0.0000000000E+00   0.1057738840E+00
  -0.5649371892E-01  -0.3819225817E-02   0.7597088779E-03   0.6354940125E-03   0.0000000000E+00   0.0000000000E+00   0.7120325878E+00  -0.6413651861E-01   0.0000000000E+00   0.1364436168E+00
  -0.5659388394E-01   0.2189293665E-02   0.8037274597E-03   0.6149082149E-03   0.0000000000E+00   0.0000000000E+00   0.7651086185E+00  -0.8422415996E-01   0.0000000000E+00   0.1076304140E+00
  -0.1663911190E+00  -0.8836706327E-02   0.1490860006E-03   0.1061204663E-02   0.0000000000E+00   0.0000000000E+00   0.4806631811E+00  -0.3729997668E-01   0.0000000000E+00   0.1746180664E-02
  -0.1746595716E+00  -0.1382349906E-01   0.1063434042E-03   0.1082585143E-02   0.0000000000E+00   0.0000000000E+00   0.4536110209E+00  -0.3250556295E-01   0.0000000000E+00   0.2963756592E-02
  -0.1501840917E+00  -0.8329957552E-02   0.2242212541E-03   0.1030171458E-02   0.0000000000E+00   0.0000000000E+00   0.4934792512E+00  -0.4656560551E-01   0.0000000000E+00   0.3666772383E-02
  -0.1500118818E+00   0.1234570334E-02   0.2465401787E-03   0.1006381402E-02   0.0000000000E+00   0.0000000000E+00   0.5402600796E+00  -0.4781973024E-01   0.0000000000E+00  -0.3389205449E-02
  -0.1582280149E+00   0.5905174660E-02   0.2138270965E-03   0.1011927160E-02   0.0000000000E+00   0.0000000000E+00   0.5593143072E+00  -0.4153716660E-01   0.0000000000E+00  -0.5951236026E-02
  -0.1583967059E+00  -0.3659194976E-02   0.1950261110E-03   0.1035875464E-02   0.0000000000E+00   0.0000000000E+00   0.5116857745E+00  -0.4142713518E-01   0.0000000000E+00  -0.8322238530E-04
  -0.1270463386E+00  -0.4980771312E-01   0.1922484134E-03   0.1050817979E-02   0.0000000000E+00   0.0000000000E+00   0.2882308007E+00  -0.2851271270E-01   0.0000000000E+00   0.4653229726E-01
  -0.1389382929E+00  -0.3975220005E-01   0.1888720636E-03   0.1067623655E-02   0.0000000000E+00   0.0000000000E+00   0.3409405197E+00  -0.3597719364E-01   0.0000000000E+00   0.3144456483E-01
  -0.1362858556E+00  -0.4796718507E-01   0.1726903942E-03   0.1073598133E-02   0.0000000000E+00   0.0000000000E+00   0.2962265035E+00  -0.2874404928E-01   0.0000000000E+00   0.3800750968E-01
  -0.1296943826E+00  -0.4159140148E-01   0.2128083964E-03   0.1046170220E-02   0.0000000000E+00   0.0000000000E+00   0.3336172781E+00  -0.3586495586E-01   0.0000000000E+00   0.3991197654E-01
   0.5691782828E-01   0.3549187859E-01   0.1969524481E-02   0.4531540910E-03   0.0000000000E+00   0.0000000000E+00   0.9314369636E+00  -0.8839448625E-01   0.0000000000E+00   0.1292750422E+00
   0.5367746993E-01   0.4228525577E-01   0.1910690635E-02   0.4032548668E-03   0.0000000000E+00   0.0000000000E+00   0.9299336331E+00  -0.4874370506E-01   0.0000000000E+00   0.1737538973E+00
   0.5230763412E-01   0.3818087618E-01   0.1916403422E-02   0.4114467843E-03   0.0000000000E+00   0.0000000000E+00   0.9510960683E+00  -0.5722108054E-01   0.0000000000E+00   0.1597149807E+00
   0.5828605601E-01   0.3959542146E-01   0.1962203613E-02   0.4441254582E-03   0.0000000000E+00   0.0000000000E+00   0.9207341430E+00  -0.7937762077E-01   0.0000000000E+00   0.1459403180E+00
   0.1696889748E+00   0.1093913748E-01   0.2822522802E-02   0.1014036534E-02   0.0000000000E+00   0.0000000000E+00   0.5795084777E+00  -0.3606835314E-01   0.0000000000E+00   0.7000553440E-02
   0.1777668790E+00   0.1590514879E-01   0.2860177985E-02   0.1012559488E-02   0.0000000000E+00   0.0000000000E+00   0.6030721647E+00  -0.3040451458E-01   0.0000000000E+00   0.6541718769E-02
   0.6794597976E-01  -0.9397537222E-04   0.2270587063E-02   0.6708424418E-03   0.0000000000E+00   0.0000000000E+00   0.7043844906E+00  -0.8652094907E-01   0.0000000000E+00  -0.8945437927E-01
   0.7099801373E-01  -0.6149902826E-02   0.2330870132E-02   0.7075598641E-03   0.0000000000E+00   0.0000000000E+00   0.6503175365E+00  -0.6701085591E-01   0.0000000000E+00  -0.1012149770E+00
   0.6586885328E-01  -0.4061727915E-02   0.2284115782E-02   0.6727258351E-03   0.0000000000E+00   0.0000000000E+00   0.6808750901E+00  -0.6943149230E-01   0.0000000000E+00  -0.1120996242E+00
   0.6892212976E-01  -0.1011893428E-01   0.2345641462E-02   0.7081637246E-03   0.0000000000E+00   0.0000000000E+00   0.6230454000E+00  -0.5191086447E-01   0.0000000000E+00  -0.1203855839E+00
   0.1098868615E+00   0.5366439106E-01   0.2311430532E-02   0.6842996627E-03   0.0000000000E+00   0.0000000000E+00   0.8134678447E+00  -0.6139314691E-01   0.0000000000E+00   0.7338293332E-01
   0.1056103239E+00   0.6124160607E-01   0.2248016933E-02   0.6345303682E-03   0.0000000000E+00   0.0000000000E+00   0.8353707378E+00  -0.5221520576E-01   0.0000000000E+00   0.8148364573E-01
   0.9624429070E-01   0.6146222786E-01   0.2173871000E-02   0.5837275604E-03   0.0000000000E+00   0.0000000000E+00   0.8457198013E+00  -0.5667993944E-01   0.0000000000E+00   0.9932705583E-01
   0.1005224090E+00   0.5388724571E-01   0.2238864794E-02   0.6357259051E-03   0.0000000000E+00   0.0000000000E+00   0.8208469202E+00  -0.6880182207E-01   0.0000000000E+00   0.8955373250E-01
  -0.4771042261E-01   0.4332814927E-01   0.1119103087E-02   0.3801640720E-03   0.0000000000E+00   0.0000000000E+00   0.9388774198E+00  -0.2608395346E-01   0.0000000000E+00  -0.1908649490E+00
  -0.5177264956E-01   0.4878442369E-01   0.1105722838E-02   0.3845282882E-03   0.0000000000E+00   0.0000000000E+00   0.8973166416E+00  -0.3484669974E-01   0.0000000000E+00  -0.1857553677E+00
  -0.7840388371E-01   0.6867462369E-01   0.9730447880E-03   0.4716288916E-03   0.0000000000E+00   0.0000000000E+00   0.8423576065E+00  -0.4162247984E-01   0.0000000000E+00  -0.1334632489E+00
  -0.7352511084E-01   0.7657299871E-01   0.1043622762E-02   0.4152649124E-03   0.0000000000E+00   0.0000000000E+00   0.8139894229E+00  -0.2309659211E-01   0.0000000000E+00  -0.1207015884E+00
  -0.8363102793E-01   0.7653732002E-01   0.9661349660E-03   0.4739106225E-03   0.0000000000E+00   0.0000000000E+00   0.8530253419E+00  -0.2731109838E-01   0.0000000000E+00  -0.1048437474E+00
   0.6291347819E-01  -0.3207778169E-01   0.2486937495E-02   0.7170403090E-03   0.0000000000E+00   0.0000000000E+00   0.4117299802E+00   0.5335568913E-01   0.0000000000E+00  -0.1572279376E+00
   0.1270943720E+00  -0.7485035075E-01   0.2892969964E-02   0.1066058755E-02   0.0000000000E+00   0.0000000000E+00   0.1315160419E+00  -0.8574420838E-02   0.0000000000E+00  -0.3954732985E-01
   0.5824874083E-01  -0.7600058929E-01   0.2852593728E-02   0.6876407086E-03   0.0000000000E+00   0.0000000000E+00   0.1216812407E-01   0.2981076862E-01   0.0000000000E+00  -0.6316346290E-02
   0.6759901455E-01  -0.7573564436E-01   0.2851546945E-02   0.7608524438E-03   0.0000000000E+00   0.0000000000E+00   0.2396899280E-01   0.2652173863E-01   0.0000000000E+00  -0.2318251247E-01
   0.7762915348E-01  -0.7568194516E-01   0.2854239981E-02   0.8313080429E-03   0.0000000000E+00   0.0000000000E+00   0.5089503872E-01   0.1958538606E-01   0.0000000000E+00  -0.3805036924E-01
  -0.4425710794E-01   0.2353632889E-01   0.1053992860E-02   0.4431369946E-03   0.0000000000E+00   0.0000000000E+00   0.9991524057E+00  -0.8712931610E-01   0.0000000000E+00  -0.6779939835E-01
  -0.4245642426E-01   0.2923139548E-01   0.1103074836E-02   0.4045924802E-03   0.0000000000E+00   0.0000000000E+00   0.1025112977E+01  -0.5850003851E-01   0.0000000000E+00  -0.1258684481E+00
  -0.4762423661E-01   0.2780533464E-01   0.1047310689E-02   0.4461898353E-03   0.0000000000E+00   0.0000000000E+00   0.9673822774E+00  -0.8934525419E-01   0.0000000000E+00  -0.9058771672E-01
  -0.7974273731E-01   0.3838178408E-01   0.8309928950E-03   0.5990516843E-03   0.0000000000E+00   0.0000000000E+00   0.8188907464E+00  -0.1083657467E+00   0.0000000000E+00  -0.8793584224E-01
  -0.6770106626E-01   0.5229678960E-01   0.9893901393E-03   0.4695301993E-03   0.0000000000E+00   0.0000000000E+00   0.8635830594E+00  -0.7313187466E-01   0.0000000000E+00  -0.1540171839E+00
  -0.8857825865E-01   0.5286206155E-01   0.8261008519E-03   0.5908258515E-03   0.0000000000E+00   0.0000000000E+00   0.8289946300E+00  -0.7802131367E-01   0.0000000000E+00  -0.1052599597E+00
  -0.7372151283E-01   0.4533959569E-01   0.9105804687E-03   0.5345979870E-03   0.0000000000E+00   0.0000000000E+00   0.8449349476E+00  -0.9262595888E-01   0.0000000000E+00  -0.1177926134E+00
  -0.7814039462E-01   0.5258082039E-01   0.9070170824E-03   0.5315709857E-03   0.0000000000E+00   0.0000000000E+00   0.8418858934E+00  -0.7746241509E-01   0.0000000000E+00  -0.1281018180E+00
  -0.8415991286E-01   0.4562162331E-01   0.8291282369E-03   0.5946392135E-03   0.0000000000E+00   0.0000000000E+00   0.8266274228E+00  -0.9208743739E-01   0.0000000000E+00  -0.9849709826E-01
  -0.9379909625E-01   0.7639629321E-01   0.8855045536E-03   0.5315758076E-03   0.0000000000E+00   0.0000000000E+00   0.8611342158E+00  -0.2757866535E-01   0.0000000000E+00  -0.8465049064E-01
  -0.7016931272E-01  -0.6193823897E-01   0.2499987803E-03   0.8005968302E-03   0.0000000000E+00   0.0000000000E+00   0.1508287226E+00   0.4078148172E-01   0.0000000000E+00   0.6691638495E-01
  -0.7020190742E-01  -0.7066762383E-01   0.1846140797E-03   0.8015489697E-03   0.0000000000E+00   0.0000000000E+00   0.8042145636E-01   0.2905417146E-01   0.0000000000E+00   0.4431419781E-01
  -0.6386326801E-01  -0.7245649520E-01   0.1742039861E-03   0.7559496042E-03   0.0000000000E+00   0.0000000000E+00   0.4711273111E-01   0.3437334048E-01   0.0000000000E+00   0.2980636227E-01
  -0.6382706852E-01  -0.6372558154E-01   0.2431934815E-03   0.7565262604E-03   0.0000000000E+00   0.0000000000E+00   0.1179501762E+00   0.4571148371E-01   0.0000000000E+00   0.5176585593E-01
  -0.5711805413E-01  -0.2946166206E-01   0.5457181729E-03   0.6962039374E-03   0.0000000000E+00   0.0000000000E+00   0.4372134565E+00   0.5553879583E-01   0.0000000000E+00   0.1718725469E+00
  -0.5212001012E-01  -0.3036420224E-01   0.5558368816E-03   0.6636810619E-03   0.0000000000E+00   0.0000000000E+00   0.4136683362E+00   0.8426713225E-01   0.0000000000E+00   0.1845820930E+00
  -0.5361343491E-01  -0.2554088723E-01   0.5942476874E-03   0.6686366727E-03   0.0000000000E+00   0.0000000000E+00   0.4771771329E+00   0.5206497086E-01   0.0000000000E+00   0.1893327721E+00
   0.1112023436E+00   0.6846643831E-01   0.2262740612E-02   0.6359651125E-03   0.0000000000E+00   0.0000000000E+00   0.8636566307E+00  -0.3446955572E-01   0.0000000000E+00   0.7213580536E-01
   0.9147251685E-01   0.6874180650E-01   0.2105440045E-02   0.5297444044E-03   0.0000000000E+00   0.0000000000E+00   0.8502925678E+00  -0.4087206211E-01   0.0000000000E+00   0.1107435106E+00
  -0.1348921621E+00   0.3729425971E-01   0.4297529064E-03   0.8579478092E-03   0.0000000000E+00   0.0000000000E+00   0.7264635908E+00  -0.4943153197E-01   0.0000000000E+00  -0.3321896639E-01
  -0.1407306193E+00   0.4260848638E-01   0.4048496698E-03   0.8594932792E-03   0.0000000000E+00   0.0000000000E+00   0.7502910672E+00  -0.4017558601E-01   0.0000000000E+00  -0.3058672687E-01
  -0.1478257071E+00   0.3880728415E-01   0.3465518647E-03   0.8926317539E-03   0.0000000000E+00   0.0000000000E+00   0.7278354612E+00  -0.3764356445E-01   0.0000000000E+00  -0.2526153712E-01
  -0.1419868093E+00   0.3349471187E-01   0.3718956815E-03   0.8927443669E-03   0.0000000000E+00   0.0000000000E+00   0.7046925257E+00  -0.4472392407E-01   0.0000000000E+00  -0.2682167509E-01
  -0.6836060205E-01   0.6880373549E-01   0.1050899246E-02   0.4116673949E-03   0.0000000000E+00   0.0000000000E+00   0.8272933333E+00  -0.2855414842E-01   0.0000000000E+00  -0.1547815525E+00
  -0.8857147414E-01   0.6853537443E-01   0.8928922609E-03   0.5310792293E-03   0.0000000000E+00   0.0000000000E+00   0.8501568451E+00  -0.4139928153E-01   0.0000000000E+00  -0.1107521849E+00
   0.1465791054E+00   0.7506657788E-01   0.2527002352E-02   0.7555300816E-03   0.0000000000E+00   0.0000000000E+00   0.9173217354E+00  -0.1162155340E-01   0.0000000000E+00   0.2389547684E-01
  -0.1441017432E+00  -0.7320305044E-01   0.8527481505E-04   0.1118376063E-02   0.0000000000E+00   0.0000000000E+00   0.1561996635E+00  -0.9966748099E-02   0.0000000000E+00   0.2789576860E-01
  -0.1678313228E+00   0.7259005329E-01   0.2662481675E-03   0.8243473915E-03   0.0000000000E+00   0.0000000000E+00   0.9126698339E+00  -0.7299947266E-02   0.0000000000E+00  -0.1109013073E-01
  -0.1732647383E+00   0.6506316973E-01   0.2111086613E-03   0.8600415257E-03   0.0000000000E+00   0.0000000000E+00   0.8697532555E+00  -0.9600609844E-02   0.0000000000E+00  -0.1057479205E-01
  -0.4236293180E-01  -0.4842915324E-01   0.4010017009E-03   0.5870840621E-03   0.0000000000E+00   0.0000000000E+00   0.1464495757E+00   0.1055629441E+00   0.0000000000E+00   0.7572371553E-01
  -0.4751877790E-01  -0.4509716353E-01   0.4268072005E-03   0.6323022748E-03   0.0000000000E+00   0.0000000000E+00   0.2103055491E+00   0.1028716185E+00   0.0000000000E+00   0.1074595642E+00
  -0.4270384844E-01  -0.4367254076E-01   0.4481411641E-03   0.5921185371E-03   0.0000000000E+00   0.0000000000E+00   0.1984719108E+00   0.1155287292E+00   0.0000000000E+00   0.1108865334E+00
  -0.1829912246E+00   0.5909204313E-01   0.1292053523E-03   0.8922798288E-03   0.0000000000E+00   0.0000000000E+00   0.8369706523E+00  -0.1074066887E-01   0.0000000000E+00  -0.6612269564E-02
  -0.9620589540E-02  -0.5166380710E-01   0.3827424598E-03   0.2519205020E-03   0.0000000000E+00   0.0000000000E+00   0.4332320702E-03  -0.7887549007E-01   0.0000000000E+00  -0.3556337008E-01
   0.1536948968E+00  -0.2739624961E-01   0.2820773828E-02   0.1071906595E-02   0.0000000000E+00   0.0000000000E+00   0.3976794561E+00  -0.3953686941E-01   0.0000000000E+00  -0.1697365801E-01
   0.1619470337E+00  -0.2289802763E-01   0.2843222691E-02   0.1078667166E-02   0.0000000000E+00   0.0000000000E+00   0.4159239282E+00  -0.3684456464E-01   0.0000000000E+00  -0.1104266552E-01
   0.1622938232E+00  -0.1340626900E-01   0.2827139158E-02   0.1059660902E-02   0.0000000000E+00   0.0000000000E+00   0.4628103073E+00  -0.4006503767E-01   0.0000000000E+00  -0.5157054845E-02
   0.1540379420E+00  -0.1790395574E-01   0.2800930951E-02   0.1053435660E-02   0.0000000000E+00   0.0000000000E+00   0.4446083577E+00  -0.4342201990E-01   0.0000000000E+00  -0.1037225352E-01
  -0.5207974839E-01  -0.6194923357E-02   0.7702969087E-03   0.6168779834E-03   0.0000000000E+00   0.0000000000E+00   0.7051426621E+00  -0.4109536207E-01   0.0000000000E+00   0.1688718237E+00
  -0.4786353465E-01   0.7416910911E-02   0.9103314495E-03   0.5407533107E-03   0.0000000000E+00   0.0000000000E+00   0.8719462129E+00  -0.9313765853E-01   0.0000000000E+00   0.1004519351E+00
  -0.5942299176E-01  -0.1824630011E-01   0.6291460390E-03   0.6918873874E-03   0.0000000000E+00   0.0000000000E+00   0.5622733479E+00  -0.4857399941E-03   0.0000000000E+00   0.1660139814E+00
  -0.5476337370E-01  -0.1993258250E-01   0.6384953956E-03   0.6671031036E-03   0.0000000000E+00   0.0000000000E+00   0.5478360236E+00   0.2848750189E-01   0.0000000000E+00   0.1893492826E+00
  -0.5562117947E-01  -0.1491778493E-01   0.6765549263E-03   0.6618130724E-03   0.0000000000E+00   0.0000000000E+00   0.6028855721E+00  -0.6941525809E-02   0.0000000000E+00   0.1775666368E+00
  -0.5826924513E-01  -0.2385243991E-01   0.5887098719E-03   0.6955877944E-03   0.0000000000E+00   0.0000000000E+00   0.5000046772E+00   0.2812166141E-01   0.0000000000E+00   0.1710229758E+00
  -0.5622730849E-01  -0.9213361092E-02   0.7194087055E-03   0.6505650079E-03   0.0000000000E+00   0.0000000000E+00   0.6624387005E+00  -0.3193089596E-01   0.0000000000E+00   0.1614956965E+00
  -0.1495773449E+00  -0.1772260267E-01   0.2056401456E-03   0.1049967733E-02   0.0000000000E+00   0.0000000000E+00   0.4465190616E+00  -0.4429541053E-01   0.0000000000E+00   0.1079037020E-01
  -0.1581792600E+00  -0.1350508220E-01   0.1775260371E-03   0.1057887798E-02   0.0000000000E+00   0.0000000000E+00   0.4630446745E+00  -0.4060213104E-01   0.0000000000E+00   0.5418209508E-02
  -0.1575692825E+00  -0.2289913998E-01   0.1621765110E-03   0.1076271420E-02   0.0000000000E+00   0.0000000000E+00   0.4166521969E+00  -0.3753426952E-01   0.0000000000E+00   0.1159309114E-01
  -0.3197180424E-03   0.4996251962E-01   0.1488453588E-02   0.1756166230E-03   0.0000000000E+00   0.0000000000E+00   0.8014196035E+00   0.2377486390E+00   0.0000000000E+00  -0.1872907955E-01
   0.1569628101E-01   0.5132927766E-01   0.1590746805E-02   0.1907238621E-03   0.0000000000E+00   0.0000000000E+00   0.8177296624E+00   0.2016735014E+00   0.0000000000E+00   0.1264611534E+00
  -0.1443710236E-01   0.4475803188E-01   0.1391931741E-02   0.2039361825E-03   0.0000000000E+00   0.0000000000E+00   0.8955446895E+00   0.2441198288E+00   0.0000000000E+00  -0.1639347654E+00
   0.6436927057E-01  -0.3680477439E-01   0.2531358975E-02   0.7309377094E-03   0.0000000000E+00   0.0000000000E+00   0.3624865972E+00   0.5613520611E-01   0.0000000000E+00  -0.1409207088E+00
   0.6016056530E-01  -0.3734039577E-01   0.2523194203E-02   0.7033453304E-03   0.0000000000E+00   0.0000000000E+00   0.3476450063E+00   0.7250314830E-01   0.0000000000E+00  -0.1492213586E+00
   0.7471807057E-01  -0.3951719523E-01   0.2585259574E-02   0.7972109689E-03   0.0000000000E+00   0.0000000000E+00   0.3573295532E+00   0.2801947201E-01   0.0000000000E+00  -0.1191425559E+00
   0.7854488255E-01  -0.2680048143E-01   0.2509882147E-02   0.7991810673E-03   0.0000000000E+00   0.0000000000E+00   0.4708528966E+00  -0.1342287114E-01   0.0000000000E+00  -0.1149144778E+00
   0.7662991713E-01  -0.3315725666E-01   0.2546007725E-02   0.7997776424E-03   0.0000000000E+00   0.0000000000E+00   0.4141982027E+00   0.7720810084E-02   0.0000000000E+00  -0.1180166427E+00
   0.7283345514E-01  -0.2917088767E-01   0.2502418137E-02   0.7723401250E-03   0.0000000000E+00   0.0000000000E+00   0.4508612467E+00   0.1002134672E-01   0.0000000000E+00  -0.1309443791E+00
   0.7092274516E-01  -0.3553028643E-01   0.2542799063E-02   0.7703131689E-03   0.0000000000E+00   0.0000000000E+00   0.3890173040E+00   0.2924577301E-01   0.0000000000E+00  -0.1315465206E+00
   0.4122989853E-01   0.4104543219E-01   0.1807017627E-02   0.3289889936E-03   0.0000000000E+00   0.0000000000E+00   0.9807940951E+00   0.3504623228E-01   0.0000000000E+00   0.2164515569E+00
   0.5992660802E-01   0.2694617117E-01   0.2040026119E-02   0.5108704708E-03   0.0000000000E+00   0.0000000000E+00   0.9012504963E+00  -0.1167385465E+00   0.0000000000E+00   0.6493185750E-01
   0.5316782891E-01   0.3228991826E-01   0.1952113209E-02   0.4427840559E-03   0.0000000000E+00   0.0000000000E+00   0.9591190994E+00  -0.8531430882E-01   0.0000000000E+00   0.1195792423E+00
   0.5467297373E-01   0.2801750594E-01   0.1988122728E-02   0.4720836362E-03   0.0000000000E+00   0.0000000000E+00   0.9416618839E+00  -0.1011528723E+00   0.0000000000E+00   0.8574676624E-01
   0.5842154039E-01   0.3121891516E-01   0.2004097485E-02   0.4819025607E-03   0.0000000000E+00   0.0000000000E+00   0.9156665176E+00  -0.1023184814E+00   0.0000000000E+00   0.9519410420E-01
  -0.3890764575E-01  -0.3985127127E-01   0.4932745546E-03   0.5602047264E-03   0.0000000000E+00   0.0000000000E+00   0.2086910710E+00   0.1296965828E+00   0.0000000000E+00   0.1265169137E+00
  -0.5489670200E-01  -0.3561363956E-01   0.4988043003E-03   0.6866433366E-03   0.0000000000E+00   0.0000000000E+00   0.3572395078E+00   0.7902046434E-01   0.0000000000E+00   0.1571147406E+00
   0.7361292648E-01  -0.2464501362E-01   0.2473084182E-02   0.7685367831E-03   0.0000000000E+00   0.0000000000E+00   0.4904228970E+00  -0.9096295649E-02   0.0000000000E+00  -0.1273441723E+00
   0.7629715905E-01  -0.1950297308E-01   0.2450207949E-02   0.7719119165E-03   0.0000000000E+00   0.0000000000E+00   0.5331098584E+00  -0.2971665840E-01   0.0000000000E+00  -0.1142096550E+00
   0.6087352796E-01  -0.4635763370E-02   0.2255652956E-02   0.6461883704E-03   0.0000000000E+00   0.0000000000E+00   0.7002244680E+00  -0.6045197468E-01   0.0000000000E+00  -0.1339132876E+00
  -0.3295957365E-01  -0.4591532918E-01   0.4347779462E-03   0.5004394152E-03   0.0000000000E+00   0.0000000000E+00   0.1096425274E+00   0.1011730245E+00   0.0000000000E+00   0.6050603148E-01
  -0.3675270925E-01  -0.4973404590E-01   0.3927153536E-03   0.5349021969E-03   0.0000000000E+00   0.0000000000E+00   0.1025212487E+00   0.8883465367E-01   0.0000000000E+00   0.4427302318E-01
  -0.3856920700E-01  -0.4460837481E-01   0.4436535010E-03   0.5546791897E-03   0.0000000000E+00   0.0000000000E+00   0.1527899877E+00   0.1180280350E+00   0.0000000000E+00   0.9033958727E-01
  -0.3997721166E-01   0.3423542787E-01   0.1150455140E-02   0.3662917733E-03   0.0000000000E+00   0.0000000000E+00   0.1020147744E+01  -0.8458570692E-02   0.0000000000E+00  -0.1809454808E+00
  -0.8634589928E-01   0.2445871898E-01   0.7156549178E-03   0.6918418835E-03   0.0000000000E+00   0.0000000000E+00   0.7513618213E+00  -0.1129393477E+00   0.0000000000E+00  -0.3660670133E-01
  -0.7137001561E-01   0.2532100816E-01   0.8326593934E-03   0.6057633559E-03   0.0000000000E+00   0.0000000000E+00   0.8125556937E+00  -0.1243052060E+00   0.0000000000E+00  -0.4285931198E-01
  -0.7885911258E-01   0.2489093160E-01   0.7730057173E-03   0.6498715959E-03   0.0000000000E+00   0.0000000000E+00   0.7778234879E+00  -0.1194934510E+00   0.0000000000E+00  -0.3923909242E-01
  -0.7555536848E-01   0.3185123348E-01   0.8328341241E-03   0.6022448803E-03   0.0000000000E+00   0.0000000000E+00   0.8187886418E+00  -0.1137813271E+00   0.0000000000E+00  -0.6887123859E-01
  -0.8304452310E-01   0.3142102283E-01   0.7731228046E-03   0.6462171273E-03   0.0000000000E+00   0.0000000000E+00   0.7851298543E+00  -0.1107698064E+00   0.0000000000E+00  -0.6017853571E-01
   0.5663233213E-01   0.1312692429E-01   0.2096488727E-02   0.5523726850E-03   0.0000000000E+00   0.0000000000E+00   0.8663551245E+00  -0.1121363582E+00   0.0000000000E+00  -0.3763259971E-01
   0.6294908944E-01  -0.6676005418E-03   0.2240559241E-02   0.6447153882E-03   0.0000000000E+00   0.0000000000E+00   0.7222855555E+00  -0.7966152902E-01   0.0000000000E+00  -0.1098623207E+00
  -0.8349090293E-01   0.6076816440E-01   0.8997373730E-03   0.5310473006E-03   0.0000000000E+00   0.0000000000E+00   0.8365567665E+00  -0.6087766011E-01   0.0000000000E+00  -0.1184460634E+00
  -0.9365871589E-01   0.6062759225E-01   0.8193697129E-03   0.5891746468E-03   0.0000000000E+00   0.0000000000E+00   0.8446813105E+00  -0.5791700344E-01   0.0000000000E+00  -0.9852271733E-01
  -0.1279682104E+00   0.5133250378E-01   0.5224016347E-03   0.7852019802E-03   0.0000000000E+00   0.0000000000E+00   0.7949347971E+00  -0.4371595270E-01   0.0000000000E+00  -0.4538232494E-01
  -0.1235032371E+00   0.4388741577E-01   0.5298938950E-03   0.7936375742E-03   0.0000000000E+00   0.0000000000E+00   0.7655150907E+00  -0.5509690789E-01   0.0000000000E+00  -0.4546386345E-01
  -0.1314312885E+00   0.4431418701E-01   0.4749825195E-03   0.8223802140E-03   0.0000000000E+00   0.0000000000E+00   0.7602772244E+00  -0.4732617554E-01   0.0000000000E+00  -0.3937922351E-01
  -0.1269664355E+00   0.3686942905E-01   0.4823465430E-03   0.8311420506E-03   0.0000000000E+00   0.0000000000E+00   0.7296687911E+00  -0.5886690976E-01   0.0000000000E+00  -0.3863972816E-01
  -0.5195428957E-01   0.4879342527E-02   0.8583985310E-03   0.5766871770E-03   0.0000000000E+00   0.0000000000E+00   0.8113310141E+00  -0.9203565620E-01   0.0000000000E+00   0.1049813485E+00
   0.5623996013E-01   0.2223824538E-01   0.2035131128E-02   0.5088282769E-03   0.0000000000E+00   0.0000000000E+00   0.9163357020E+00  -0.1139940661E+00   0.0000000000E+00   0.3386111280E-01
   0.6312452604E-01   0.1788257366E-01   0.2119429139E-02   0.5713768614E-03   0.0000000000E+00   0.0000000000E+00   0.8440247208E+00  -0.1230404077E+00   0.0000000000E+00   0.3537313309E-03
   0.5784084762E-01   0.1770696026E-01   0.2076761119E-02   0.5395950586E-03   0.0000000000E+00   0.0000000000E+00   0.8791753250E+00  -0.1198529177E+00   0.0000000000E+00  -0.2876206297E-02
   0.6191501295E-01   0.1330227222E-01   0.2138162947E-02   0.5838890219E-03   0.0000000000E+00   0.0000000000E+00   0.8246885262E+00  -0.1164487480E+00   0.0000000000E+00  -0.3051265289E-01
   0.1660855044E+00  -0.7223943713E-01   0.2941363377E-02   0.1151657675E-02   0.0000000000E+00   0.0000000000E+00   0.1680084758E+00  -0.9091726227E-02   0.0000000000E+00  -0.1725673723E-01
   0.1727888431E+00  -0.6764083136E-01   0.2945810136E-02   0.1156533436E-02   0.0000000000E+00   0.0000000000E+00   0.1922959527E+00  -0.1035857652E-01   0.0000000000E+00  -0.1458006023E-01
   0.1647922016E+00  -0.6181405293E-01   0.2921617557E-02   0.1140849672E-02   0.0000000000E+00   0.0000000000E+00   0.2193093062E+00  -0.1455638406E-01   0.0000000000E+00  -0.2014332191E-01
   0.4821590455E-01  -0.5372368086E-01   0.2652698445E-02   0.6099985391E-03   0.0000000000E+00   0.0000000000E+00   0.1232197017E+00   0.8526305855E-01   0.0000000000E+00  -0.5506460170E-01
   0.4296133905E-01  -0.5701481520E-01   0.2680441848E-02   0.5613530994E-03   0.0000000000E+00   0.0000000000E+00   0.7379835047E-01   0.7415705240E-01   0.0000000000E+00  -0.2173341925E-01
   0.2281625103E-01   0.4964654102E-01   0.1640959632E-02   0.2142335208E-03   0.0000000000E+00   0.0000000000E+00   0.8561416573E+00   0.1820736722E+00   0.0000000000E+00   0.1781709675E+00
   0.3795185592E-01   0.4603914870E-01   0.1763834625E-02   0.2932246050E-03   0.0000000000E+00   0.0000000000E+00   0.9385651153E+00   0.6817658346E-01   0.0000000000E+00   0.2245662811E+00
   0.4441739392E-01   0.4586119851E-01   0.1818095821E-02   0.3315796060E-03   0.0000000000E+00   0.0000000000E+00   0.9314171146E+00   0.1497296964E-01   0.0000000000E+00   0.2071671004E+00
   0.7394046278E-01  -0.4609484765E-01   0.2631939380E-02   0.7986558515E-03   0.0000000000E+00   0.0000000000E+00   0.2950383143E+00   0.3836418683E-01   0.0000000000E+00  -0.1072262335E+00
   0.6816600029E-01  -0.4079094559E-01   0.2575223786E-02   0.7585731132E-03   0.0000000000E+00   0.0000000000E+00   0.3322293436E+00   0.5135044719E-01   0.0000000000E+00  -0.1258482810E+00
   0.6739262109E-01  -0.4737103901E-01   0.2626132091E-02   0.7575770908E-03   0.0000000000E+00   0.0000000000E+00   0.2623872880E+00   0.5689630180E-01   0.0000000000E+00  -0.1073518589E+00
   0.1314942723E+00  -0.6669114469E-01   0.2870324307E-02   0.1073674014E-02   0.0000000000E+00   0.0000000000E+00   0.1849014543E+00  -0.1307904447E-01   0.0000000000E+00  -0.4365709497E-01
   0.1367900006E+00  -0.7446816949E-01   0.2904020594E-02   0.1094121309E-02   0.0000000000E+00   0.0000000000E+00   0.1387438750E+00  -0.9339500800E-02   0.0000000000E+00  -0.3336421772E-01
  -0.8372466975E-01  -0.6489502891E-01   0.2111796504E-03   0.8851189899E-03   0.0000000000E+00   0.0000000000E+00   0.1562465122E+00   0.1662532618E-01   0.0000000000E+00   0.6731273318E-01
  -0.9238548062E-01  -0.6568316736E-01   0.1938096812E-03   0.9317883359E-03   0.0000000000E+00   0.0000000000E+00   0.1627374917E+00   0.6978221631E-02   0.0000000000E+00   0.6571975859E-01
  -0.8723036017E-01  -0.7349154353E-01   0.1525077264E-03   0.9075701741E-03   0.0000000000E+00   0.0000000000E+00   0.9103330863E-01   0.9403691584E-02   0.0000000000E+00   0.5218901074E-01
  -0.7697547636E-01  -0.7214344706E-01   0.1693103408E-03   0.8463743433E-03   0.0000000000E+00   0.0000000000E+00   0.8264441927E-01   0.1945159936E-01   0.0000000000E+00   0.4668726886E-01
  -0.1145655839E+00  -0.5884027581E-01   0.1874691205E-03   0.1021071294E-02   0.0000000000E+00   0.0000000000E+00   0.2318151121E+00  -0.1736248139E-01   0.0000000000E+00   0.5706919034E-01
  -0.1054199818E+00  -0.5893546208E-01   0.2066611510E-03   0.9859814208E-03   0.0000000000E+00   0.0000000000E+00   0.2244263395E+00  -0.1188350954E-01   0.0000000000E+00   0.6294209290E-01
   0.1341774802E+00   0.3478701717E-01   0.2552766172E-02   0.8533813737E-03   0.0000000000E+00   0.0000000000E+00   0.7167942221E+00  -0.5509550419E-01   0.0000000000E+00   0.3434474375E-01
   0.1286268035E+00   0.5170293995E-01   0.2459088527E-02   0.7747197511E-03   0.0000000000E+00   0.0000000000E+00   0.7971623606E+00  -0.4556218286E-01   0.0000000000E+00   0.4799642883E-01
   0.1411157836E+00   0.4138098793E-01   0.2580462593E-02   0.8551790261E-03   0.0000000000E+00   0.0000000000E+00   0.7456776718E+00  -0.4326823583E-01   0.0000000000E+00   0.3201751416E-01
   0.1383430226E+00   0.4984050766E-01   0.2536208626E-02   0.8174046630E-03   0.0000000000E+00   0.0000000000E+00   0.7869221891E+00  -0.3842014207E-01   0.0000000000E+00   0.3778079055E-01
   0.1314032077E+00   0.4324578352E-01   0.2507000743E-02   0.8148537245E-03   0.0000000000E+00   0.0000000000E+00   0.7561987940E+00  -0.5159700975E-01   0.0000000000E+00   0.4160740315E-01
   0.1597206629E+00   0.3498126934E-01   0.2720865852E-02   0.9267888387E-03   0.0000000000E+00   0.0000000000E+00   0.7067531545E+00  -0.3294464358E-01   0.0000000000E+00   0.1863006047E-01
  -0.1567841971E+00  -0.3307254721E-01   0.1452959275E-03   0.1093736693E-02   0.0000000000E+00   0.0000000000E+00   0.3661132295E+00  -0.3403068910E-01   0.0000000000E+00   0.1665017298E-01
  -0.7951941325E-01  -0.8823467967E-02   0.5839841540E-03   0.7753199033E-03   0.0000000000E+00   0.0000000000E+00   0.5978391422E+00  -0.7038319801E-01   0.0000000000E+00   0.7513596045E-01
  -0.7678765314E-01  -0.1981419598E-01   0.5304862615E-03   0.7907050174E-03   0.0000000000E+00   0.0000000000E+00   0.5245734565E+00  -0.3583071459E-01   0.0000000000E+00   0.1043982407E+00
  -0.7815252176E-01  -0.1431794779E-01   0.5582428369E-03   0.7838966083E-03   0.0000000000E+00   0.0000000000E+00   0.5607998704E+00  -0.5340984185E-01   0.0000000000E+00   0.8958242260E-01
  -0.7289870019E-01  -0.1664270131E-01   0.5709908082E-03   0.7629464895E-03   0.0000000000E+00   0.0000000000E+00   0.5554665026E+00  -0.4043144775E-01   0.0000000000E+00   0.1108010689E+00
  -0.7426282035E-01  -0.1114715991E-01   0.5994959542E-03   0.7554312867E-03   0.0000000000E+00   0.0000000000E+00   0.5949102318E+00  -0.5650358798E-01   0.0000000000E+00   0.9589228440E-01
  -0.4348964300E-01   0.6163979545E-01   0.1212238696E-02   0.2928622542E-03   0.0000000000E+00   0.0000000000E+00   0.8134237724E+00   0.2125310295E-01   0.0000000000E+00  -0.1918566411E+00
  -0.5367396024E-01   0.6209350609E-01   0.1137677558E-02   0.3481828898E-03   0.0000000000E+00   0.0000000000E+00   0.8378561446E+00  -0.1597676670E-01   0.0000000000E+00  -0.1873641188E+00
  -0.6300805718E-01   0.6061313123E-01   0.1060208117E-02   0.4089270344E-03   0.0000000000E+00   0.0000000000E+00   0.8395022157E+00  -0.4163009893E-01   0.0000000000E+00  -0.1655761451E+00
  -0.7305294196E-01   0.6048533752E-01   0.9807505444E-03   0.4702104208E-03   0.0000000000E+00   0.0000000000E+00   0.8530335942E+00  -0.5776048628E-01   0.0000000000E+00  -0.1453143477E+00
   0.3452572127E-01   0.5176491301E-01   0.1723046371E-02   0.2593474062E-03   0.0000000000E+00   0.0000000000E+00   0.8735753373E+00   0.9123641238E-01   0.0000000000E+00   0.2124677889E+00
   0.1387268768E+00  -0.1651982903E-01   0.2731324778E-02   0.1013508666E-02   0.0000000000E+00   0.0000000000E+00   0.4651396508E+00  -0.5256059820E-01   0.0000000000E+00  -0.1583324756E-01
   0.1391169060E+00   0.6270273371E-03   0.2683483007E-02   0.9719777231E-03   0.0000000000E+00   0.0000000000E+00   0.5500654540E+00  -0.5831554780E-01   0.0000000000E+00   0.1697287756E-02
   0.1465529627E+00  -0.1246555391E-01   0.2755237665E-02   0.1024428189E-02   0.0000000000E+00   0.0000000000E+00   0.4788729601E+00  -0.4884108138E-01   0.0000000000E+00  -0.9305200247E-02
   0.1467510191E+00  -0.3891521968E-02   0.2734366075E-02   0.1004266182E-02   0.0000000000E+00   0.0000000000E+00   0.5212364107E+00  -0.5172195210E-01   0.0000000000E+00  -0.1224599670E-02
   0.1389216971E+00  -0.7945582056E-02   0.2707202115E-02   0.9935621440E-03   0.0000000000E+00   0.0000000000E+00   0.5073461006E+00  -0.5614890861E-01   0.0000000000E+00  -0.7102467488E-02
   0.1360466093E+00  -0.3386945573E-01   0.2773380330E-02   0.1042117173E-02   0.0000000000E+00   0.0000000000E+00   0.3761348269E+00  -0.4203477775E-01   0.0000000000E+00  -0.3286134827E-01
   0.1438478732E+00  -0.4125262259E-01   0.2821436181E-02   0.1074647310E-02   0.0000000000E+00   0.0000000000E+00   0.3320062669E+00  -0.3446543810E-01   0.0000000000E+00  -0.3075642167E-01
   0.1526683194E+00  -0.3801685704E-01   0.2841435447E-02   0.1088703555E-02   0.0000000000E+00   0.0000000000E+00   0.3429679839E+00  -0.3375076693E-01   0.0000000000E+00  -0.2325862067E-01
   0.1448696115E+00  -0.3063127607E-01   0.2795935536E-02   0.1058587626E-02   0.0000000000E+00   0.0000000000E+00   0.3873223618E+00  -0.4039505824E-01   0.0000000000E+00  -0.2460631996E-01
   0.1619129193E+00  -0.3274340039E-01   0.2861426299E-02   0.1096790212E-02   0.0000000000E+00   0.0000000000E+00   0.3666459567E+00  -0.3351895409E-01   0.0000000000E+00  -0.1560899346E-01
   0.9138666254E-01   0.4050107988E-01   0.2226100943E-02   0.6388084839E-03   0.0000000000E+00   0.0000000000E+00   0.7987917299E+00  -0.9861370145E-01   0.0000000000E+00   0.8148685418E-01
   0.9535076978E-01   0.4731484712E-01   0.2226827180E-02   0.6334206188E-03   0.0000000000E+00   0.0000000000E+00   0.8074764126E+00  -0.8379385619E-01   0.0000000000E+00   0.8807243138E-01
   0.8719205195E-01   0.4729187652E-01   0.2163776148E-02   0.5880834172E-03   0.0000000000E+00   0.0000000000E+00   0.8289212361E+00  -0.8909444720E-01   0.0000000000E+00   0.1024830456E+00
   0.7590709377E-01   0.3833243059E-01   0.2114986369E-02   0.5591343939E-03   0.0000000000E+00   0.0000000000E+00   0.8412011230E+00  -0.1098087137E+00   0.0000000000E+00   0.9683967046E-01
   0.7725511060E-01   0.4636927145E-01   0.2089108697E-02   0.5335417506E-03   0.0000000000E+00   0.0000000000E+00   0.8455108906E+00  -0.9052042780E-01   0.0000000000E+00   0.1201604982E+00
  -0.6016441417E-01   0.1762942902E-01   0.8787365255E-03   0.5727049245E-03   0.0000000000E+00   0.0000000000E+00   0.8427605541E+00  -0.1241126236E+00   0.0000000000E+00   0.1649771938E-02
  -0.5479607298E-01   0.1987068340E-01   0.9370787232E-03   0.5295535966E-03   0.0000000000E+00   0.0000000000E+00   0.8918724759E+00  -0.1184536264E+00   0.0000000000E+00  -0.1699669907E-01
  -0.5359766982E-01   0.2614090011E-01   0.9844156760E-03   0.4932189075E-03   0.0000000000E+00   0.0000000000E+00   0.9275126241E+00  -0.1104236112E+00   0.0000000000E+00  -0.6305914240E-01
  -0.5896657245E-01   0.2390077687E-01   0.9255157516E-03   0.5375013722E-03   0.0000000000E+00   0.0000000000E+00   0.8725821045E+00  -0.1201315566E+00   0.0000000000E+00  -0.4009826227E-01
  -0.1037165941E+00   0.6027463315E-01   0.7394279293E-03   0.6438144519E-03   0.0000000000E+00   0.0000000000E+00   0.8321554827E+00  -0.5294999611E-01   0.0000000000E+00  -0.7916112063E-01
  -0.1138026102E+00   0.5991459663E-01   0.6598697890E-03   0.6942267297E-03   0.0000000000E+00   0.0000000000E+00   0.8371765337E+00  -0.4484530214E-01   0.0000000000E+00  -0.6326858811E-01
  -0.5836293940E-01   0.5377450972E-01   0.1070889602E-02   0.4061350150E-03   0.0000000000E+00   0.0000000000E+00   0.8730782662E+00  -0.4152972136E-01   0.0000000000E+00  -0.1819752211E+00
  -0.1472482265E+00  -0.3662263917E-01   0.1698555070E-03   0.1081385328E-02   0.0000000000E+00   0.0000000000E+00   0.3513236947E+00  -0.3560401693E-01   0.0000000000E+00   0.2417804384E-01
  -0.1550581675E+00  -0.4257920591E-01   0.1317344770E-03   0.1106088794E-02   0.0000000000E+00   0.0000000000E+00   0.3184617604E+00  -0.2820003746E-01   0.0000000000E+00   0.2233865163E-01
  -0.1329023589E+00  -0.5729230558E-01   0.1521951076E-03   0.1076690223E-02   0.0000000000E+00   0.0000000000E+00   0.2439000161E+00  -0.2228648642E-01   0.0000000000E+00   0.4132844004E-01
  -0.1234435451E+00   0.5950408546E-01   0.5841238707E-03   0.7380854626E-03   0.0000000000E+00   0.0000000000E+00   0.8298220454E+00  -0.3843341909E-01   0.0000000000E+00  -0.5066828409E-01
  -0.1336948546E+00   0.5869199130E-01   0.5030363886E-03   0.7808411037E-03   0.0000000000E+00   0.0000000000E+00   0.8307290986E+00  -0.3125662000E-01   0.0000000000E+00  -0.3892992533E-01
  -0.1372706220E+00   0.4962922128E-01   0.4491879601E-03   0.8247294798E-03   0.0000000000E+00   0.0000000000E+00   0.7853508059E+00  -0.3718918018E-01   0.0000000000E+00  -0.3602378668E-01
  -0.1429995179E+00   0.5698646530E-01   0.4275710840E-03   0.8181251989E-03   0.0000000000E+00   0.0000000000E+00   0.8199149671E+00  -0.2707688441E-01   0.0000000000E+00  -0.3089811349E-01
  -0.1570650604E+00   0.3508254052E-01   0.2770905885E-03   0.9272611232E-03   0.0000000000E+00   0.0000000000E+00   0.7070600799E+00  -0.3280266456E-01   0.0000000000E+00  -0.1854031304E-01
  -0.1314168619E+00   0.2081651426E-01   0.4028930650E-03   0.8989572571E-03   0.0000000000E+00   0.0000000000E+00   0.6513120163E+00  -0.6165389617E-01   0.0000000000E+00  -0.2239883470E-01
  -0.1402465626E+00   0.2525579172E-01   0.3610624085E-03   0.9131989214E-03   0.0000000000E+00   0.0000000000E+00   0.6658754732E+00  -0.5117592334E-01   0.0000000000E+00  -0.2215877351E-01
  -0.1406306644E+00   0.1580955920E-01   0.3334855813E-03   0.9425272977E-03   0.0000000000E+00   0.0000000000E+00   0.6201233893E+00  -0.5373917822E-01   0.0000000000E+00  -0.1555535678E-01
   0.1430595237E+00   0.3185757840E-01   0.2619908688E-02   0.8920937023E-03   0.0000000000E+00   0.0000000000E+00   0.6979869711E+00  -0.4783064228E-01   0.0000000000E+00   0.2698778828E-01
   0.1499989821E+00   0.3844914373E-01   0.2648760064E-02   0.8914822264E-03   0.0000000000E+00   0.0000000000E+00   0.7259004262E+00  -0.3848590660E-01   0.0000000000E+00   0.2575604696E-01
   0.1154788892E+00   0.6088796870E-01   0.2326162225E-02   0.6844761035E-03   0.0000000000E+00   0.0000000000E+00   0.8406229531E+00  -0.4480535705E-01   0.0000000000E+00   0.6505993771E-01
   0.1577835552E+00   0.4450717419E-01   0.2688067179E-02   0.8923694932E-03   0.0000000000E+00   0.0000000000E+00   0.7565555218E+00  -0.2798324084E-01   0.0000000000E+00   0.2194071238E-01
   0.1348789326E+00   0.5917249629E-01   0.2481593607E-02   0.7724762906E-03   0.0000000000E+00   0.0000000000E+00   0.8329385927E+00  -0.3212924559E-01   0.0000000000E+00   0.4071235390E-01
  -0.9863543344E-01   0.5251049924E-01   0.7468627581E-03   0.6468587359E-03   0.0000000000E+00   0.0000000000E+00   0.8157126184E+00  -0.7110524361E-01   0.0000000000E+00  -0.8637582531E-01
  -0.1183302201E+00   0.5174588872E-01   0.5952018547E-03   0.7442170202E-03   0.0000000000E+00   0.0000000000E+00   0.8000437663E+00  -0.5306654151E-01   0.0000000000E+00  -0.5686430919E-01
  -0.9379163730E-01  -0.5084757112E-01   0.2771580999E-03   0.9263346784E-03   0.0000000000E+00   0.0000000000E+00   0.2815715650E+00  -0.5136183095E-02   0.0000000000E+00   0.7994505289E-01
  -0.9742092611E-01  -0.5866085640E-01   0.2248334896E-03   0.9509744977E-03   0.0000000000E+00   0.0000000000E+00   0.2243265868E+00  -0.4153302454E-02   0.0000000000E+00   0.7096597219E-01
  -0.8875522088E-01  -0.5786889341E-01   0.2471052165E-03   0.9081333891E-03   0.0000000000E+00   0.0000000000E+00   0.2191444911E+00   0.6038725911E-02   0.0000000000E+00   0.7408092016E-01
  -0.1066978009E+00  -0.2376161779E-01   0.3699111315E-03   0.9343207097E-03   0.0000000000E+00   0.0000000000E+00   0.4592075169E+00  -0.5368174269E-01   0.0000000000E+00   0.4968364533E-01
  -0.1116124074E+00  -0.3021455884E-01   0.3209286249E-03   0.9666387550E-03   0.0000000000E+00   0.0000000000E+00   0.4163402293E+00  -0.4618378025E-01   0.0000000000E+00   0.5060298697E-01
  -0.1044278294E+00  -0.3092050431E-01   0.3461985905E-03   0.9406630901E-03   0.0000000000E+00   0.0000000000E+00   0.4161932755E+00  -0.4267867635E-01   0.0000000000E+00   0.5944774611E-01
   0.1248510742E+00   0.5990750154E-01   0.2402212160E-02   0.7299464414E-03   0.0000000000E+00   0.0000000000E+00   0.8313147622E+00  -0.3941187734E-01   0.0000000000E+00   0.5277907491E-01
  -0.1231854356E+00  -0.5804480996E-01   0.1716364474E-03   0.1049239042E-02   0.0000000000E+00   0.0000000000E+00   0.2356154540E+00  -0.2074817705E-01   0.0000000000E+00   0.4892574969E-01
  -0.4621256812E-01  -0.5884468636E-01   0.2990223786E-03   0.6167172375E-03   0.0000000000E+00   0.0000000000E+00   0.9102665591E-01   0.7059462115E-01   0.0000000000E+00   0.3307590225E-01
  -0.4178490929E-01  -0.5597714880E-01   0.3284544092E-03   0.5785469997E-03   0.0000000000E+00   0.0000000000E+00   0.9190175256E-01   0.7635383104E-01   0.0000000000E+00   0.3434861251E-01
  -0.4679348449E-01  -0.5129746704E-01   0.3686721138E-03   0.6244780644E-03   0.0000000000E+00   0.0000000000E+00   0.1471907334E+00   0.9484499540E-01   0.0000000000E+00   0.7170148679E-01
   0.1108527144E+00  -0.5220804964E-01   0.2766448389E-02   0.9883656581E-03   0.0000000000E+00   0.0000000000E+00   0.2752812455E+00  -0.1933526949E-01   0.0000000000E+00  -0.6541153518E-01
   0.1163261877E+00  -0.5964029092E-01   0.2813373664E-02   0.1017381680E-02   0.0000000000E+00   0.0000000000E+00   0.2259756353E+00  -0.1637642024E-01   0.0000000000E+00  -0.5780667395E-01
   0.1260073249E+00  -0.5901302291E-01   0.2831643869E-02   0.1049720794E-02   0.0000000000E+00   0.0000000000E+00   0.2293835667E+00  -0.1985232836E-01   0.0000000000E+00  -0.4890343614E-01
   0.1205381031E+00  -0.5157850911E-01   0.2788978065E-02   0.1022977289E-02   0.0000000000E+00   0.0000000000E+00   0.2787627742E+00  -0.2352207371E-01   0.0000000000E+00  -0.5599119770E-01
   0.1013266575E+00  -0.3836760837E-01   0.2668200103E-02   0.9292086292E-03   0.0000000000E+00   0.0000000000E+00   0.3732037657E+00  -0.2735836086E-01   0.0000000000E+00  -0.7439912628E-01
   0.9109384365E-01  -0.5181126647E-01   0.2714155045E-02   0.8995013344E-03   0.0000000000E+00   0.0000000000E+00   0.2701998946E+00   0.4705774628E-02   0.0000000000E+00  -0.8469243087E-01
   0.9620737827E-01  -0.4508729208E-01   0.2688301573E-02   0.9165003197E-03   0.0000000000E+00   0.0000000000E+00   0.3223776000E+00  -0.1194015091E-01   0.0000000000E+00  -0.8000764543E-01
   0.1009730383E+00  -0.5200681564E-01   0.2740061166E-02   0.9467777614E-03   0.0000000000E+00   0.0000000000E+00   0.2737736068E+00  -0.7816802336E-02   0.0000000000E+00  -0.7512661854E-01
   0.1060916592E+00  -0.4528659367E-01   0.2719294248E-02   0.9600243263E-03   0.0000000000E+00   0.0000000000E+00   0.3244276499E+00  -0.2329263663E-01   0.0000000000E+00  -0.6978848162E-01
   0.9320954813E-01  -0.2587615411E-01   0.2568369928E-02   0.8693756930E-03   0.0000000000E+00   0.0000000000E+00   0.4652100338E+00  -0.4012588495E-01   0.0000000000E+00  -0.7918344217E-01
   0.1080599607E+00  -0.2456447850E-01   0.2626623675E-02   0.9297077025E-03   0.0000000000E+00   0.0000000000E+00   0.4563741379E+00  -0.5204110199E-01   0.0000000000E+00  -0.5291438503E-01
   0.9599813973E-01  -0.1815387073E-01   0.2539368032E-02   0.8639858735E-03   0.0000000000E+00   0.0000000000E+00   0.5098783727E+00  -0.5703573438E-01   0.0000000000E+00  -0.6274924745E-01
   0.1006346648E+00  -0.2521913113E-01   0.2597407034E-02   0.9007268653E-03   0.0000000000E+00   0.0000000000E+00   0.4604043826E+00  -0.4623334233E-01   0.0000000000E+00  -0.6525197753E-01
   0.1034269347E+00  -0.1749795831E-01   0.2572090732E-02   0.8942282850E-03   0.0000000000E+00   0.0000000000E+00   0.5054778894E+00  -0.6081224927E-01   0.0000000000E+00  -0.5021803668E-01
  -0.6758218909E-01  -0.2519625928E-01   0.5365098125E-03   0.7527420234E-03   0.0000000000E+00   0.0000000000E+00   0.4881777073E+00   0.2355472411E-02   0.0000000000E+00   0.1385408730E+00
  -0.6234861800E-01  -0.2732755288E-01   0.5426193988E-03   0.7258798241E-03   0.0000000000E+00   0.0000000000E+00   0.4669209632E+00   0.2932543629E-01   0.0000000000E+00   0.1558154111E+00
  -0.6350381227E-01  -0.2172075196E-01   0.5816042271E-03   0.7228424381E-03   0.0000000000E+00   0.0000000000E+00   0.5222612539E+00  -0.9005480157E-03   0.0000000000E+00   0.1505776255E+00
  -0.6421426167E-01  -0.1585836945E-01   0.6224266256E-03   0.7139215468E-03   0.0000000000E+00   0.0000000000E+00   0.5784030440E+00  -0.2148032193E-01   0.0000000000E+00   0.1417955703E+00
  -0.6003037537E-01  -0.1254073727E-01   0.6707415337E-03   0.6817792304E-03   0.0000000000E+00   0.0000000000E+00   0.6151467691E+00  -0.2862673171E-01   0.0000000000E+00   0.1506515570E+00
  -0.5620659530E-01   0.7870007985E-02   0.8469483019E-03   0.5903725750E-03   0.0000000000E+00   0.0000000000E+00   0.8096998309E+00  -0.1061345582E+00   0.0000000000E+00   0.7052220592E-01
   0.6425527468E-01   0.3156601962E-01   0.2052321882E-02   0.5173939177E-03   0.0000000000E+00   0.0000000000E+00   0.8867642627E+00  -0.1119736025E+00   0.0000000000E+00   0.8600345774E-01
   0.6530223400E-01   0.2542929382E-01   0.2093750801E-02   0.5512501178E-03   0.0000000000E+00   0.0000000000E+00   0.8615058705E+00  -0.1212422460E+00   0.0000000000E+00   0.5037744024E-01
   0.6962962775E-01   0.3004858589E-01   0.2104777346E-02   0.5572171899E-03   0.0000000000E+00   0.0000000000E+00   0.8484217172E+00  -0.1181248281E+00   0.0000000000E+00   0.6911019312E-01
  -0.4336018365E-01   0.3891893808E-01   0.1139541445E-02   0.3697234782E-03   0.0000000000E+00   0.0000000000E+00   0.9703208984E+00  -0.2042746116E-01   0.0000000000E+00  -0.1818263211E+00
  -0.3116794250E-01   0.4971481033E-01   0.1275268001E-02   0.2629003328E-03   0.0000000000E+00   0.0000000000E+00   0.8933149019E+00   0.9964205957E-01   0.0000000000E+00  -0.2160720062E+00
   0.6152513751E-01   0.2241468142E-01   0.2079298109E-02   0.5414327243E-03   0.0000000000E+00   0.0000000000E+00   0.8731280824E+00  -0.1208621975E+00   0.0000000000E+00   0.3067961295E-01
   0.7237173222E-01   0.1164664747E-01   0.2228136921E-02   0.6511616725E-03   0.0000000000E+00   0.0000000000E+00   0.7592294343E+00  -0.1159325073E+00   0.0000000000E+00  -0.2492636026E-01
   0.6653982470E-01   0.1018454957E-01   0.2193727305E-02   0.6240222852E-03   0.0000000000E+00   0.0000000000E+00   0.7804067620E+00  -0.1131099917E+00   0.0000000000E+00  -0.4362963495E-01
   0.6432769745E-01   0.4314753481E-02   0.2215701349E-02   0.6343776111E-03   0.0000000000E+00   0.0000000000E+00   0.7561672050E+00  -0.9628724313E-01   0.0000000000E+00  -0.7784070429E-01
   0.7015733440E-01   0.5777018366E-02   0.2247840397E-02   0.6616844261E-03   0.0000000000E+00   0.0000000000E+00   0.7324083340E+00  -0.1024957401E+00   0.0000000000E+00  -0.5625968014E-01
   0.6592743249E-01  -0.5335019375E-01   0.2671928688E-02   0.7493287539E-03   0.0000000000E+00   0.0000000000E+00   0.2042726472E+00   0.6345420169E-01   0.0000000000E+00  -0.8743360036E-01
   0.5074741749E-01   0.4728114277E-01   0.1866277886E-02   0.3652278667E-03   0.0000000000E+00   0.0000000000E+00   0.9229468812E+00  -0.2039078485E-01   0.0000000000E+00   0.1989755857E+00
  -0.6050361177E-01   0.1140538217E-01   0.8371971270E-03   0.6013371695E-03   0.0000000000E+00   0.0000000000E+00   0.8018913650E+00  -0.1143144133E+00   0.0000000000E+00   0.4030297097E-01
  -0.5586432396E-01   0.1409427597E-01   0.8915615351E-03   0.5619615675E-03   0.0000000000E+00   0.0000000000E+00   0.8558057719E+00  -0.1151317755E+00   0.0000000000E+00   0.3092953861E-01
  -0.8935173240E-01   0.3689570141E-01   0.7506124049E-03   0.6584131062E-03   0.0000000000E+00   0.0000000000E+00   0.7857854912E+00  -0.1022336269E+00   0.0000000000E+00  -0.7211115748E-01
  -0.9265103798E-01   0.2993244687E-01   0.6952150221E-03   0.7030852738E-03   0.0000000000E+00   0.0000000000E+00   0.7566698215E+00  -0.1028318537E+00   0.0000000000E+00  -0.4932929649E-01
   0.1183126764E+00  -0.3713596683E-01   0.2722223405E-02   0.9930424676E-03   0.0000000000E+00   0.0000000000E+00   0.3706489033E+00  -0.3952296700E-01   0.0000000000E+00  -0.5207094605E-01
   0.1046915029E+00  -0.3146480029E-01   0.2645608900E-02   0.9307004061E-03   0.0000000000E+00   0.0000000000E+00   0.4145782812E+00  -0.4052509255E-01   0.0000000000E+00  -0.6357173648E-01
   0.1098194516E+00  -0.3775006686E-01   0.2694996568E-02   0.9628444355E-03   0.0000000000E+00   0.0000000000E+00   0.3719605329E+00  -0.3345869558E-01   0.0000000000E+00  -0.6291485454E-01
   0.1131881166E+00  -0.3084894055E-01   0.2676217624E-02   0.9626581484E-03   0.0000000000E+00   0.0000000000E+00   0.4138535529E+00  -0.4532993943E-01   0.0000000000E+00  -0.5267040266E-01
   0.1012311999E+00   0.3456342163E-02   0.2461825659E-02   0.8245929031E-03   0.0000000000E+00   0.0000000000E+00   0.6224195982E+00  -0.8957525429E-01   0.0000000000E+00  -0.1312552805E-01
   0.9478885372E-01   0.1473886574E-01   0.2368387516E-02   0.7560556355E-03   0.0000000000E+00   0.0000000000E+00   0.6929205900E+00  -0.1044431798E+00   0.0000000000E+00   0.9495853139E-02
   0.9054498710E-01   0.1873240947E-02   0.2404544099E-02   0.7806184273E-03   0.0000000000E+00   0.0000000000E+00   0.6405687239E+00  -0.9291616583E-01   0.0000000000E+00  -0.3075233284E-01
   0.9801075312E-01   0.9098503931E-02   0.2415832921E-02   0.7912239106E-03   0.0000000000E+00   0.0000000000E+00   0.6584038418E+00  -0.9619426389E-01   0.0000000000E+00  -0.2937839953E-02
   0.9266590860E-01   0.8306516240E-02   0.2385450297E-02   0.7688001699E-03   0.0000000000E+00   0.0000000000E+00   0.6670376895E+00  -0.9946327421E-01   0.0000000000E+00  -0.1042748141E-01
   0.9588822084E-01   0.2665235997E-02   0.2433308539E-02   0.8030501070E-03   0.0000000000E+00   0.0000000000E+00   0.6308297958E+00  -0.9143587434E-01   0.0000000000E+00  -0.2138127077E-01
  -0.9376889011E-01   0.4413501685E-01   0.7487729855E-03   0.6534769486E-03   0.0000000000E+00   0.0000000000E+00   0.7958092996E+00  -0.8700325337E-01   0.0000000000E+00  -0.8055273527E-01
   0.8673706919E-01  -0.5979496955E-01   0.2755599889E-02   0.8825960483E-03   0.0000000000E+00   0.0000000000E+00   0.1971513391E+00   0.1559991225E-01   0.0000000000E+00  -0.7332751968E-01
   0.9654106239E-01  -0.5966232000E-01   0.2773046890E-02   0.9334754976E-03   0.0000000000E+00   0.0000000000E+00   0.2125696723E+00   0.2197229991E-03   0.0000000000E+00  -0.7228195029E-01
  -0.6145738960E-01  -0.3366574770E-01   0.4943892013E-03   0.7285612011E-03   0.0000000000E+00   0.0000000000E+00   0.3960229202E+00   0.4648986131E-01   0.0000000000E+00   0.1496389228E+00
  -0.6668693472E-01  -0.3153205514E-01   0.4923055785E-03   0.7578223633E-03   0.0000000000E+00   0.0000000000E+00   0.4271932059E+00   0.2518114466E-01   0.0000000000E+00   0.1380190804E+00
  -0.7383365719E-01  -0.5489354577E-01   0.2965352130E-03   0.8218885336E-03   0.0000000000E+00   0.0000000000E+00   0.2205192291E+00   0.3401120076E-01   0.0000000000E+00   0.8454127741E-01
  -0.6627774381E-01  -0.5677551450E-01   0.2952650858E-03   0.7732989954E-03   0.0000000000E+00   0.0000000000E+00   0.1820991858E+00   0.5085017054E-01   0.0000000000E+00   0.7929110576E-01
  -0.6994088337E-01  -0.4973059208E-01   0.3430064275E-03   0.7948199226E-03   0.0000000000E+00   0.0000000000E+00   0.2585926874E+00   0.4521578342E-01   0.0000000000E+00   0.9869248242E-01
  -0.1704422776E-01   0.6125285620E-01   0.1389842344E-02   0.1857146019E-03   0.0000000000E+00   0.0000000000E+00   0.7347500514E+00   0.1159070693E+00   0.0000000000E+00  -0.1223160875E+00
  -0.2292066832E-01   0.6488954046E-01   0.1357761975E-02   0.1957765602E-03   0.0000000000E+00   0.0000000000E+00   0.7213010489E+00   0.8860187857E-01   0.0000000000E+00  -0.1422705542E+00
  -0.1184219027E+00  -0.5060114351E-01   0.2126643032E-03   0.1024689387E-02   0.0000000000E+00   0.0000000000E+00   0.2848969483E+00  -0.2494688049E-01   0.0000000000E+00   0.5491770480E-01
  -0.1217868937E+00  -0.4323753733E-01   0.2318833438E-03   0.1024957565E-02   0.0000000000E+00   0.0000000000E+00   0.3304481178E+00  -0.3431717377E-01   0.0000000000E+00   0.4842518039E-01
  -0.1017949469E+00  -0.5112114259E-01   0.2547321443E-03   0.9623758142E-03   0.0000000000E+00   0.0000000000E+00   0.2812934776E+00  -0.1355163004E-01   0.0000000000E+00   0.7150509550E-01
  -0.6408736899E-01  -0.4474053906E-01   0.3958712130E-03   0.7542334388E-03   0.0000000000E+00   0.0000000000E+00   0.2914729348E+00   0.5768281788E-01   0.0000000000E+00   0.1163133166E+00
  -0.5923403571E-01  -0.3981776227E-01   0.4494734887E-03   0.7189617253E-03   0.0000000000E+00   0.0000000000E+00   0.3257394333E+00   0.7120256838E-01   0.0000000000E+00   0.1361754784E+00
   0.1192574559E+00   0.5268586230E-01   0.2385882895E-02   0.7317046014E-03   0.0000000000E+00   0.0000000000E+00   0.8052554161E+00  -0.5317564570E-01   0.0000000000E+00   0.5989006982E-01
   0.1226124138E+00   0.4509130288E-01   0.2438020835E-02   0.7734389764E-03   0.0000000000E+00   0.0000000000E+00   0.7734036468E+00  -0.5824296396E-01   0.0000000000E+00   0.4990530752E-01
   0.1132444156E+00   0.4607220953E-01   0.2366171607E-02   0.7284118306E-03   0.0000000000E+00   0.0000000000E+00   0.7808508163E+00  -0.6806042444E-01   0.0000000000E+00   0.6206467676E-01
   0.1242708289E+00  -0.4404322519E-01   0.2769606943E-02   0.1024562013E-02   0.0000000000E+00   0.0000000000E+00   0.3259732425E+00  -0.3353475671E-01   0.0000000000E+00  -0.4931295679E-01
   0.1331339310E+00  -0.4241033749E-01   0.2791327956E-02   0.1048727812E-02   0.0000000000E+00   0.0000000000E+00   0.3284971180E+00  -0.3506691108E-01   0.0000000000E+00  -0.3985354958E-01
   0.1271790979E+00  -0.3550101223E-01   0.2747256852E-02   0.1019278866E-02   0.0000000000E+00   0.0000000000E+00   0.3736701370E+00  -0.4070816424E-01   0.0000000000E+00  -0.4221737206E-01
   0.8212773238E-01  -0.5224004808E-01   0.2695766476E-02   0.8516344211E-03   0.0000000000E+00   0.0000000000E+00   0.2551191794E+00   0.2478674523E-01   0.0000000000E+00  -0.9027203871E-01
   0.1548674163E+00  -0.5752590680E-01   0.2891754334E-02   0.1119893000E-02   0.0000000000E+00   0.0000000000E+00   0.2420393630E+00  -0.1967261145E-01   0.0000000000E+00  -0.2681217131E-01
  -0.1341267959E+00   0.1151439794E-02   0.3284680901E-03   0.9647429846E-03   0.0000000000E+00   0.0000000000E+00   0.5546640632E+00  -0.6014691849E-01   0.0000000000E+00  -0.1985185691E-02
  -0.1419818277E+00   0.5975534815E-02   0.3000622727E-03   0.9739330551E-03   0.0000000000E+00   0.0000000000E+00   0.5712390522E+00  -0.5324534749E-01   0.0000000000E+00  -0.6453952519E-02
  -0.1327723556E+00   0.1098506609E-01   0.3651533863E-03   0.9329392891E-03   0.0000000000E+00   0.0000000000E+00   0.6027793778E+00  -0.6184434515E-01   0.0000000000E+00  -0.1233425728E-01
  -0.1244338184E+00  -0.3502234123E-01   0.2535706060E-03   0.1019194171E-02   0.0000000000E+00   0.0000000000E+00   0.3761473688E+00  -0.4131951352E-01   0.0000000000E+00   0.4150594615E-01
   0.1047145816E+00   0.4709326517E-01   0.2298751608E-02   0.6832707652E-03   0.0000000000E+00   0.0000000000E+00   0.7989346972E+00  -0.7521192091E-01   0.0000000000E+00   0.7317921869E-01
   0.1375177449E+00   0.1764932158E-01   0.2625340885E-02   0.9186870783E-03   0.0000000000E+00   0.0000000000E+00   0.6334442358E+00  -0.5931541485E-01   0.0000000000E+00   0.1860400214E-01
   0.1447267599E+00   0.2328750938E-01   0.2653307940E-02   0.9235243822E-03   0.0000000000E+00   0.0000000000E+00   0.6556295332E+00  -0.5012952736E-01   0.0000000000E+00   0.2009749856E-01
   0.1358482596E+00   0.2621894325E-01   0.2589708642E-02   0.8868090502E-03   0.0000000000E+00   0.0000000000E+00   0.6746120759E+00  -0.5826114491E-01   0.0000000000E+00   0.2677696585E-01
   0.8668882783E-01  -0.3807886766E-01   0.2615358826E-02   0.8603662429E-03   0.0000000000E+00   0.0000000000E+00   0.3777250509E+00  -0.5341536583E-02   0.0000000000E+00  -0.9788388860E-01
   0.8140456588E-01  -0.4556407422E-01   0.2648129179E-02   0.8417217778E-03   0.0000000000E+00   0.0000000000E+00   0.3108774770E+00   0.1831126529E-01   0.0000000000E+00  -0.9962244770E-01
   0.8404573345E-01  -0.4182068352E-01   0.2630780546E-02   0.8518313771E-03   0.0000000000E+00   0.0000000000E+00   0.3445277687E+00   0.6369258965E-02   0.0000000000E+00  -0.9964886690E-01
   0.8625016369E-01  -0.4868703438E-01   0.2682097292E-02   0.8712475168E-03   0.0000000000E+00   0.0000000000E+00   0.2888513177E+00   0.9773419775E-02   0.0000000000E+00  -0.8993004361E-01
   0.8889218670E-01  -0.4494418160E-01   0.2665604198E-02   0.8808193019E-03   0.0000000000E+00   0.0000000000E+00   0.3245328503E+00   0.1261341009E-02   0.0000000000E+00  -0.9200785238E-01
   0.1064151158E+00  -0.5986014286E-01   0.2793811775E-02   0.9784782419E-03   0.0000000000E+00   0.0000000000E+00   0.2165097508E+00  -0.9340112691E-02   0.0000000000E+00  -0.6384760625E-01
   0.1464805796E+00   0.5450611038E-02   0.2709318611E-02   0.9793229779E-03   0.0000000000E+00   0.0000000000E+00   0.5674046893E+00  -0.5201111175E-01   0.0000000000E+00   0.6061561007E-02
   0.1383175837E+00   0.9138946069E-02   0.2654670719E-02   0.9461041786E-03   0.0000000000E+00   0.0000000000E+00   0.5914096305E+00  -0.5964693470E-01   0.0000000000E+00   0.1026195994E-01
   0.1456839443E+00   0.1396267118E-01   0.2683192260E-02   0.9535904808E-03   0.0000000000E+00   0.0000000000E+00   0.6093853390E+00  -0.5240140795E-01   0.0000000000E+00   0.1367635378E-01
   0.9271095961E-01   0.2180984020E-01   0.2320873409E-02   0.7193997034E-03   0.0000000000E+00   0.0000000000E+00   0.7288059637E+00  -0.1074977246E+00   0.0000000000E+00   0.2872785652E-01
   0.8625210084E-01   0.2438700456E-01   0.2262130436E-02   0.6757590584E-03   0.0000000000E+00   0.0000000000E+00   0.7625302434E+00  -0.1130700109E+00   0.0000000000E+00   0.3607622226E-01
   0.8833209144E-01   0.1731790930E-01   0.2311740937E-02   0.7142942017E-03   0.0000000000E+00   0.0000000000E+00   0.7242645811E+00  -0.1118717051E+00   0.0000000000E+00   0.1423941301E-01
  -0.1421575121E+00  -0.3587267095E-02   0.2742838937E-03   0.9994490849E-03   0.0000000000E+00   0.0000000000E+00   0.5241933446E+00  -0.5296920492E-01   0.0000000000E+00   0.1201201995E-02
  -0.1341577970E+00  -0.7722503812E-02   0.3019969595E-03   0.9880006985E-03   0.0000000000E+00   0.0000000000E+00   0.5102735150E+00  -0.5733878061E-01   0.0000000000E+00   0.7522017925E-02
  -0.1421853324E+00  -0.1246286660E-01   0.2509786270E-03   0.1021050702E-02   0.0000000000E+00   0.0000000000E+00   0.4801025951E+00  -0.4963560145E-01   0.0000000000E+00   0.9788008986E-02
  -0.9105012930E-01  -0.2920537118E-02   0.5498566965E-03   0.8124633722E-03   0.0000000000E+00   0.0000000000E+00   0.6056117970E+00  -0.8473210584E-01   0.0000000000E+00   0.3717055172E-01
  -0.1045000492E+00   0.5791913285E-02   0.5110038280E-03   0.8441554750E-03   0.0000000000E+00   0.0000000000E+00   0.6208898924E+00  -0.8734741917E-01   0.0000000000E+00   0.3028101619E-02
  -0.9053637514E-01   0.4117668913E-02   0.5882935595E-03   0.7872975728E-03   0.0000000000E+00   0.0000000000E+00   0.6431057679E+00  -0.9409947854E-01   0.0000000000E+00   0.2022910828E-01
  -0.9726312259E-01   0.8474414484E-02   0.5670836146E-03   0.8036636439E-03   0.0000000000E+00   0.0000000000E+00   0.6495446849E+00  -0.9539001408E-01   0.0000000000E+00   0.2176546304E-02
  -0.9777395464E-01   0.1436403391E-02   0.5315687553E-03   0.8290247273E-03   0.0000000000E+00   0.0000000000E+00   0.6140865686E+00  -0.8582390527E-01   0.0000000000E+00   0.1912683584E-01
  -0.1331539980E+00   0.2905575358E-01   0.4168369658E-03   0.8788200788E-03   0.0000000000E+00   0.0000000000E+00   0.6888685587E+00  -0.5636947289E-01   0.0000000000E+00  -0.2842673891E-01
  -0.1214772552E+00  -0.2373951115E-01   0.3064187550E-03   0.9870398467E-03   0.0000000000E+00   0.0000000000E+00   0.4419078092E+00  -0.5299462825E-01   0.0000000000E+00   0.3342233138E-01
  -0.1269126234E+00  -0.2855732801E-01   0.2671186313E-03   0.1014255490E-02   0.0000000000E+00   0.0000000000E+00   0.4106429105E+00  -0.4773627241E-01   0.0000000000E+00   0.3320675267E-01
  -0.1189993532E+00  -0.3020405649E-01   0.2919668334E-03   0.9924483148E-03   0.0000000000E+00   0.0000000000E+00   0.4070251537E+00  -0.4698937500E-01   0.0000000000E+00   0.4161260446E-01
   0.1098857458E+00   0.1234892988E-01   0.2476141830E-02   0.8328645826E-03   0.0000000000E+00   0.0000000000E+00   0.6471598914E+00  -0.8809265399E-01   0.0000000000E+00   0.1097546007E-01
   0.1055576878E+00   0.7902915748E-02   0.2468198822E-02   0.8290085684E-03   0.0000000000E+00   0.0000000000E+00   0.6356063286E+00  -0.8865529157E-01   0.0000000000E+00  -0.9014591063E-03
   0.1023383750E+00   0.1354512964E-01   0.2423339942E-02   0.7956924385E-03   0.0000000000E+00   0.0000000000E+00   0.6682174297E+00  -0.9658147654E-01   0.0000000000E+00   0.1059787350E-01
  -0.7035180122E-01   0.1121728468E-01   0.7622098814E-03   0.6582901769E-03   0.0000000000E+00   0.0000000000E+00   0.7522150041E+00  -0.1151630199E+00   0.0000000000E+00   0.2576050990E-01
  -0.6525936213E-01   0.1442438347E-01   0.8192187672E-03   0.6165241749E-03   0.0000000000E+00   0.0000000000E+00   0.7963609964E+00  -0.1191794573E+00   0.0000000000E+00   0.1397314796E-01
  -0.6576679763E-01   0.2147547716E-01   0.8561152706E-03   0.5894918579E-03   0.0000000000E+00   0.0000000000E+00   0.8288311000E+00  -0.1230767084E+00   0.0000000000E+00  -0.2213443422E-01
  -0.7085974216E-01   0.1826966977E-01   0.7986009431E-03   0.6325510696E-03   0.0000000000E+00   0.0000000000E+00   0.7826077257E+00  -0.1206270928E+00   0.0000000000E+00  -0.8406099252E-02
   0.1232949130E+00  -0.2218434994E-01   0.2682738965E-02   0.9796727575E-03   0.0000000000E+00   0.0000000000E+00   0.4519040586E+00  -0.5496061282E-01   0.0000000000E+00  -0.3276956446E-01
   0.1296727995E+00  -0.2802535453E-01   0.2730105460E-02   0.1012443271E-02   0.0000000000E+00   0.0000000000E+00   0.4140237046E+00  -0.4836247368E-01   0.0000000000E+00  -0.3284699211E-01
   0.1373859895E+00  -0.2519368356E-01   0.2751599454E-02   0.1028772639E-02   0.0000000000E+00   0.0000000000E+00   0.4204026026E+00  -0.4789138067E-01   0.0000000000E+00  -0.2452842454E-01
   0.1310100973E+00  -0.1935093124E-01   0.2706241263E-02   0.9977480565E-03   0.0000000000E+00   0.0000000000E+00   0.4587446033E+00  -0.5354712455E-01   0.0000000000E+00  -0.2400992964E-01
   0.1462130631E+00  -0.2195621189E-01   0.2778226079E-02   0.1044535106E-02   0.0000000000E+00   0.0000000000E+00   0.4312903576E+00  -0.4586174351E-01   0.0000000000E+00  -0.1653440615E-01
   0.7378396664E-01   0.3305600029E-01   0.2123313837E-02   0.5690809910E-03   0.0000000000E+00   0.0000000000E+00   0.8399099430E+00  -0.1148041113E+00   0.0000000000E+00   0.7997307620E-01
  -0.6622094767E-01   0.3769839915E-01   0.9365369313E-03   0.5213281493E-03   0.0000000000E+00   0.0000000000E+00   0.8674841624E+00  -0.1068918673E+00   0.0000000000E+00  -0.1082446986E+00
  -0.6037224858E-01   0.4000849054E-01   0.9962690195E-03   0.4748046369E-03   0.0000000000E+00   0.0000000000E+00   0.8957572625E+00  -0.8793669738E-01   0.0000000000E+00  -0.1359915254E+00
  -0.6111274655E-01   0.4730757404E-01   0.1022256952E-02   0.4487939357E-03   0.0000000000E+00   0.0000000000E+00   0.8860915046E+00  -0.7614097780E-01   0.0000000000E+00  -0.1542937021E+00
  -0.6696004915E-01   0.4499700418E-01   0.9639213466E-03   0.4948389796E-03   0.0000000000E+00   0.0000000000E+00   0.8687729768E+00  -0.8638277958E-01   0.0000000000E+00  -0.1349303152E+00
  -0.7694714939E-01  -0.6341499294E-01   0.2304348080E-03   0.8444989639E-03   0.0000000000E+00   0.0000000000E+00   0.1539315154E+00   0.3002951653E-01   0.0000000000E+00   0.6721795619E-01
  -0.5993464523E-01  -0.5856411024E-01   0.2893141705E-03   0.7279752594E-03   0.0000000000E+00   0.0000000000E+00   0.1496189589E+00   0.6143974497E-01   0.0000000000E+00   0.6492704461E-01
  -0.1252307430E+00   0.2863104451E-01   0.4669590367E-03   0.8521359141E-03   0.0000000000E+00   0.0000000000E+00   0.6938401405E+00  -0.6406796874E-01   0.0000000000E+00  -0.3237443242E-01
  -0.1121034445E+00   0.2121741035E-01   0.5258424576E-03   0.8250371543E-03   0.0000000000E+00   0.0000000000E+00   0.6779375141E+00  -0.8342238092E-01   0.0000000000E+00  -0.2728842145E-01
  -0.1200937153E+00   0.8314123297E-02   0.4292606586E-03   0.8977520367E-03   0.0000000000E+00   0.0000000000E+00   0.6065399885E+00  -0.7401856133E-01   0.0000000000E+00  -0.7859227323E-02
  -0.1217609748E+00   0.2101898589E-01   0.4635502087E-03   0.8640216860E-03   0.0000000000E+00   0.0000000000E+00   0.6629434783E+00  -0.7292352663E-01   0.0000000000E+00  -0.2499297762E-01
  -0.1257539969E+00   0.1456584666E-01   0.4173680770E-03   0.8988825644E-03   0.0000000000E+00   0.0000000000E+00   0.6291611294E+00  -0.6782276546E-01   0.0000000000E+00  -0.1576146083E-01
  -0.1160996987E+00   0.1476686238E-01   0.4764362762E-03   0.8624901763E-03   0.0000000000E+00   0.0000000000E+00   0.6429251395E+00  -0.7799807033E-01   0.0000000000E+00  -0.1692130344E-01
   0.7728282018E-01  -0.4911815159E-01   0.2662483883E-02   0.8210487085E-03   0.0000000000E+00   0.0000000000E+00   0.2732199809E+00   0.3211461012E-01   0.0000000000E+00  -0.9807387568E-01
   0.6774914846E-01   0.1476546702E-01   0.2174800460E-02   0.6121262207E-03   0.0000000000E+00   0.0000000000E+00   0.8012726507E+00  -0.1190155003E+00   0.0000000000E+00  -0.1302048793E-01
   0.7903916930E-01   0.6189030547E-03   0.2339063004E-02   0.7277071287E-03   0.0000000000E+00   0.0000000000E+00   0.6675977599E+00  -0.9253227354E-01   0.0000000000E+00  -0.5618060128E-01
   0.7570619982E-01   0.6133888512E-02   0.2284349018E-02   0.6905474117E-03   0.0000000000E+00   0.0000000000E+00   0.7148646883E+00  -0.1025674485E+00   0.0000000000E+00  -0.4272682271E-01
   0.7349293182E-01   0.2629860497E-03   0.2305182317E-02   0.6997970007E-03   0.0000000000E+00   0.0000000000E+00   0.6847177220E+00  -0.9043533417E-01   0.0000000000E+00  -0.7177625900E-01
   0.6689996142E-01   0.2089688859E-01   0.2132220720E-02   0.5808986934E-03   0.0000000000E+00   0.0000000000E+00   0.8360116233E+00  -0.1226253250E+00   0.0000000000E+00   0.1876678676E-01
   0.7152330832E-01   0.1777940087E-01   0.2186312821E-02   0.6212650676E-03   0.0000000000E+00   0.0000000000E+00   0.7927896296E+00  -0.1213295511E+00   0.0000000000E+00   0.4924916167E-02
  -0.6829404638E-01  -0.1933301784E-01   0.5759243223E-03   0.7446800621E-03   0.0000000000E+00   0.0000000000E+00   0.5388558025E+00  -0.2042446817E-01   0.0000000000E+00   0.1295592425E+00
  -0.6546032078E-01   0.1936575898E-02   0.7393544153E-03   0.6664820579E-03   0.0000000000E+00   0.0000000000E+00   0.7176930790E+00  -0.9367878241E-01   0.0000000000E+00   0.7742179104E-01
  -0.5435668050E-01  -0.5984191335E-01   0.2841154964E-03   0.6846029463E-03   0.0000000000E+00   0.0000000000E+00   0.1123108334E+00   0.6627402336E-01   0.0000000000E+00   0.4960974389E-01
  -0.7298254325E-01   0.3804072027E-01   0.8830641466E-03   0.5608204667E-03   0.0000000000E+00   0.0000000000E+00   0.8400398631E+00  -0.1108096548E+00   0.0000000000E+00  -0.9661975708E-01
  -0.8564755544E-01  -0.4934848467E-01   0.3073789564E-03   0.8844845292E-03   0.0000000000E+00   0.0000000000E+00   0.2860895490E+00   0.8431455303E-02   0.0000000000E+00   0.8871208348E-01
  -0.8061550874E-01  -0.5637312024E-01   0.2729562628E-03   0.8629700645E-03   0.0000000000E+00   0.0000000000E+00   0.2230292216E+00   0.2009736055E-01   0.0000000000E+00   0.8252796226E-01
   0.8070280751E-01  -0.3879680047E-01   0.2599667512E-02   0.8300214316E-03   0.0000000000E+00   0.0000000000E+00   0.3690405971E+00   0.1125978539E-01   0.0000000000E+00  -0.1083094910E+00
   0.7806202064E-01  -0.4254032963E-01   0.2617396844E-02   0.8197695681E-03   0.0000000000E+00   0.0000000000E+00   0.3321804114E+00   0.2181689244E-01   0.0000000000E+00  -0.1078049881E+00
  -0.9007737312E-01  -0.2024292689E-01   0.4634829820E-03   0.8559495082E-03   0.0000000000E+00   0.0000000000E+00   0.5035137024E+00  -0.5165744634E-01   0.0000000000E+00   0.7264458193E-01
  -0.8394332395E-01  -0.2575252143E-01   0.4599599499E-03   0.8395655665E-03   0.0000000000E+00   0.0000000000E+00   0.4703806464E+00  -0.3075489107E-01   0.0000000000E+00   0.9150707311E-01
  -0.7730115297E-01  -0.2553925025E-01   0.4907762331E-03   0.8058500450E-03   0.0000000000E+00   0.0000000000E+00   0.4806677739E+00  -0.1994097355E-01   0.0000000000E+00   0.1087060190E+00
  -0.8343278085E-01  -0.2002760010E-01   0.4967131535E-03   0.8242876981E-03   0.0000000000E+00   0.0000000000E+00   0.5128614302E+00  -0.4464531056E-01   0.0000000000E+00   0.8695291798E-01
  -0.7021169612E-01   0.4955397439E-02   0.7257436831E-03   0.6814892291E-03   0.0000000000E+00   0.0000000000E+00   0.7137967560E+00  -0.1015002594E+00   0.0000000000E+00   0.5288111159E-01
  -0.6559768749E-01   0.8198824475E-02   0.7785516104E-03   0.6436442449E-03   0.0000000000E+00   0.0000000000E+00   0.7591084345E+00  -0.1066912021E+00   0.0000000000E+00   0.4998168818E-01
  -0.1176296623E+00  -0.8309646219E-02   0.3819166652E-03   0.9363920506E-03   0.0000000000E+00   0.0000000000E+00   0.5286000661E+00  -0.6797609818E-01   0.0000000000E+00   0.1715826707E-01
  -0.1188610028E+00   0.2945621245E-05   0.4062742183E-03   0.9177791292E-03   0.0000000000E+00   0.0000000000E+00   0.5672779425E+00  -0.7150505898E-01   0.0000000000E+00   0.4404627723E-02
  -0.1271117044E+00   0.4734241814E-02   0.3774156410E-03   0.9327078639E-03   0.0000000000E+00   0.0000000000E+00   0.5807108994E+00  -0.6686489320E-01   0.0000000000E+00  -0.4584130363E-02
  -0.1258768442E+00  -0.3577895418E-02   0.3565848190E-03   0.9517753921E-03   0.0000000000E+00   0.0000000000E+00   0.5417992065E+00  -0.6398736539E-01   0.0000000000E+00   0.6899332390E-02
   0.1213459109E+00   0.2294044136E-01   0.2508002863E-02   0.8445636595E-03   0.0000000000E+00   0.0000000000E+00   0.6762078443E+00  -0.7554976819E-01   0.0000000000E+00   0.2856904288E-01
   0.1277604984E+00   0.2886436151E-01   0.2529187420E-02   0.8496048055E-03   0.0000000000E+00   0.0000000000E+00   0.6966814441E+00  -0.6481650237E-01   0.0000000000E+00   0.3187454676E-01
   0.1253899455E+00   0.3663484761E-01   0.2487060510E-02   0.8142778083E-03   0.0000000000E+00   0.0000000000E+00   0.7329331735E+00  -0.6350332693E-01   0.0000000000E+00   0.4214735243E-01
   0.1189737647E+00   0.3071029212E-01   0.2464282690E-02   0.8086013202E-03   0.0000000000E+00   0.0000000000E+00   0.7123704254E+00  -0.7480236795E-01   0.0000000000E+00   0.3969724248E-01
  -0.9797394566E-01  -0.4446301042E-01   0.3006280429E-03   0.9371396774E-03   0.0000000000E+00   0.0000000000E+00   0.3277400708E+00  -0.1889743818E-01   0.0000000000E+00   0.7450314624E-01
  -0.9715728234E-01  -0.2959451818E-01   0.3821052603E-03   0.9079576159E-03   0.0000000000E+00   0.0000000000E+00   0.4337324454E+00  -0.3977822459E-01   0.0000000000E+00   0.7047540240E-01
  -0.9361828129E-01  -0.2491804203E-01   0.4218443142E-03   0.8826331655E-03   0.0000000000E+00   0.0000000000E+00   0.4678643748E+00  -0.4535124551E-01   0.0000000000E+00   0.7148663316E-01
  -0.9838883643E-01  -0.2200079791E-01   0.4154437739E-03   0.8966094850E-03   0.0000000000E+00   0.0000000000E+00   0.4789843670E+00  -0.5341462949E-01   0.0000000000E+00   0.5920917453E-01
  -0.1019267038E+00  -0.2667742255E-01   0.3768462322E-03   0.9217855520E-03   0.0000000000E+00   0.0000000000E+00   0.4461134497E+00  -0.4682353391E-01   0.0000000000E+00   0.5942701402E-01
   0.7654190766E-01  -0.5793681080E-02   0.2362407364E-02   0.7357744600E-03   0.0000000000E+00   0.0000000000E+00   0.6319618679E+00  -0.7347169191E-01   0.0000000000E+00  -0.8256015342E-01
   0.7985600709E-01  -0.9790785035E-02   0.2406692790E-02   0.7647784648E-03   0.0000000000E+00   0.0000000000E+00   0.5972372427E+00  -0.6412098808E-01   0.0000000000E+00  -0.8485545076E-01
   0.8001515891E-01  -0.1443582915E-01   0.2436435511E-02   0.7784641481E-03   0.0000000000E+00   0.0000000000E+00   0.5641578439E+00  -0.5295680386E-01   0.0000000000E+00  -0.9382227227E-01
   0.1208025228E+00  -0.2965920012E-01   0.2701208846E-02   0.9873158844E-03   0.0000000000E+00   0.0000000000E+00   0.4110893081E+00  -0.4766593033E-01   0.0000000000E+00  -0.4236614555E-01
   0.1156772338E+00  -0.2337323855E-01   0.2654473808E-02   0.9558649527E-03   0.0000000000E+00   0.0000000000E+00   0.4539726921E+00  -0.5353393691E-01   0.0000000000E+00  -0.4245444518E-01
   0.8261835023E-01  -0.3243884032E-01   0.2564111828E-02   0.8306097790E-03   0.0000000000E+00   0.0000000000E+00   0.4238495206E+00  -0.9033544039E-02   0.0000000000E+00  -0.1061950573E+00
   0.8226047203E-01  -0.2173140737E-01   0.2493699334E-02   0.8076643268E-03   0.0000000000E+00   0.0000000000E+00   0.5050665781E+00  -0.3430144571E-01   0.0000000000E+00  -0.9871140710E-01
   0.8587699191E-01  -0.2633702823E-01   0.2538902614E-02   0.8355670657E-03   0.0000000000E+00   0.0000000000E+00   0.4681448043E+00  -0.2717245861E-01   0.0000000000E+00  -0.9611263067E-01
   0.8994732222E-01  -0.3197610863E-01   0.2589994917E-02   0.8662741705E-03   0.0000000000E+00   0.0000000000E+00   0.4213325757E+00  -0.2341233401E-01   0.0000000000E+00  -0.8868237839E-01
  -0.6457179660E-01   0.2774737401E-01   0.9000537032E-03   0.5548373056E-03   0.0000000000E+00   0.0000000000E+00   0.8563978874E+00  -0.1197539423E+00   0.0000000000E+00  -0.6264464618E-01
  -0.6879505332E-01   0.3151001983E-01   0.8850264810E-03   0.5638619347E-03   0.0000000000E+00   0.0000000000E+00   0.8414651393E+00  -0.1166994675E+00   0.0000000000E+00  -0.7338549262E-01
  -0.6199584219E-01   0.3393497959E-01   0.9534129119E-03   0.5115297901E-03   0.0000000000E+00   0.0000000000E+00   0.8867128296E+00  -0.1089351480E+00   0.0000000000E+00  -0.9646381483E-01
  -0.1155709372E+00   0.2882974316E-01   0.5315348103E-03   0.8134273626E-03   0.0000000000E+00   0.0000000000E+00   0.7069178451E+00  -0.7573371216E-01   0.0000000000E+00  -0.3678651454E-01
   0.5672455717E-01   0.4869478912E-01   0.1910795874E-02   0.3970113233E-03   0.0000000000E+00   0.0000000000E+00   0.8944986653E+00  -0.4340413892E-01   0.0000000000E+00   0.1795327957E+00
   0.6275199735E-01   0.3583933029E-01   0.2018187249E-02   0.4889926896E-03   0.0000000000E+00   0.0000000000E+00   0.8958231411E+00  -0.1005011554E+00   0.0000000000E+00   0.1142050929E+00
  -0.8969461510E-01  -0.3630182705E-01   0.3740307014E-03   0.8868631496E-03   0.0000000000E+00   0.0000000000E+00   0.3910253698E+00  -0.1891052743E-01   0.0000000000E+00   0.8736569188E-01
  -0.8359530406E-01  -0.4207488605E-01   0.3595592442E-03   0.8654735509E-03   0.0000000000E+00   0.0000000000E+00   0.3430078340E+00   0.1268507888E-02   0.0000000000E+00   0.9451228887E-01
  -0.8375580779E-01  -0.3378311027E-01   0.4113746101E-03   0.8538864298E-03   0.0000000000E+00   0.0000000000E+00   0.4104035173E+00  -0.1505944783E-01   0.0000000000E+00   0.9751672909E-01
  -0.7269976274E-01  -0.2823053272E-01   0.4924462565E-03   0.7866176751E-03   0.0000000000E+00   0.0000000000E+00   0.4571419002E+00  -0.4895529524E-02   0.0000000000E+00   0.1221249888E+00
  -0.7218372148E-01  -0.2250427709E-01   0.5346976243E-03   0.7726741051E-03   0.0000000000E+00   0.0000000000E+00   0.5088458852E+00  -0.1685559774E-01   0.0000000000E+00   0.1215201189E+00
   0.1145807002E+00  -0.4467057211E-01   0.2742344248E-02   0.9921401940E-03   0.0000000000E+00   0.0000000000E+00   0.3230174672E+00  -0.2967263995E-01   0.0000000000E+00  -0.5866404966E-01
   0.1134953422E+00  -0.1318860631E-01   0.2601854164E-02   0.9231183904E-03   0.0000000000E+00   0.0000000000E+00   0.5133021709E+00  -0.6616890779E-01   0.0000000000E+00  -0.3071685402E-01
   0.1251837591E+00  -0.7517631467E-02   0.2638159135E-02   0.9500316134E-03   0.0000000000E+00   0.0000000000E+00   0.5263545796E+00  -0.6545361854E-01   0.0000000000E+00  -0.1309149640E-01
   0.1183963422E+00  -0.1768554098E-01   0.2643511208E-02   0.9523322237E-03   0.0000000000E+00   0.0000000000E+00   0.4827458466E+00  -0.6026282018E-01   0.0000000000E+00  -0.3174626671E-01
   0.1242387809E+00  -0.1485029248E-01   0.2659893945E-02   0.9655504237E-03   0.0000000000E+00   0.0000000000E+00   0.4889313674E+00  -0.6068127856E-01   0.0000000000E+00  -0.2302078570E-01
   0.1193389236E+00  -0.1035248816E-01   0.2619379575E-02   0.9372052443E-03   0.0000000000E+00   0.0000000000E+00   0.5200972668E+00  -0.6547863507E-01   0.0000000000E+00  -0.2184079008E-01
  -0.1259114190E+00  -0.1245201718E-01   0.3265250016E-03   0.9748548203E-03   0.0000000000E+00   0.0000000000E+00   0.4967425056E+00  -0.6062741305E-01   0.0000000000E+00   0.1665600250E-01
   0.1242659802E+00   0.7599737891E-02   0.2580013169E-02   0.9041223011E-03   0.0000000000E+00   0.0000000000E+00   0.6014541042E+00  -0.7263627639E-01   0.0000000000E+00   0.7230923270E-02
   0.1316929711E+00   0.4114979803E-02   0.2633269117E-02   0.9396471229E-03   0.0000000000E+00   0.0000000000E+00   0.5756587680E+00  -0.6531896773E-01   0.0000000000E+00   0.4272600555E-02
   0.1308907379E+00   0.1262525727E-01   0.2601544935E-02   0.9121324684E-03   0.0000000000E+00   0.0000000000E+00   0.6176621935E+00  -0.6563712057E-01   0.0000000000E+00   0.1326683894E-01
   0.1228063300E+00   0.1527082975E-01   0.2544393041E-02   0.8750833459E-03   0.0000000000E+00   0.0000000000E+00   0.6386325466E+00  -0.7464199706E-01   0.0000000000E+00   0.1777984214E-01
   0.1294331627E+00   0.2029667175E-01   0.2568013656E-02   0.8834165528E-03   0.0000000000E+00   0.0000000000E+00   0.6547657950E+00  -0.6718906265E-01   0.0000000000E+00   0.2323173565E-01
  -0.1140878243E+00  -0.2374946434E-01   0.3378646857E-03   0.9617794588E-03   0.0000000000E+00   0.0000000000E+00   0.4499064973E+00  -0.5404780372E-01   0.0000000000E+00   0.4084759703E-01
  -0.1121613493E+00  -0.1603441614E-01   0.3782997344E-03   0.9365722627E-03   0.0000000000E+00   0.0000000000E+00   0.4947576481E+00  -0.6177266785E-01   0.0000000000E+00   0.3318870212E-01
  -0.1195539721E+00  -0.1602353774E-01   0.3436538810E-03   0.9627578585E-03   0.0000000000E+00   0.0000000000E+00   0.4858897615E+00  -0.5997824161E-01   0.0000000000E+00   0.2601729829E-01
  -0.1019904699E+00  -0.9884618325E-02   0.4557660982E-03   0.8806007754E-03   0.0000000000E+00   0.0000000000E+00   0.5451369790E+00  -0.7204788199E-01   0.0000000000E+00   0.3543854100E-01
  -0.1098102232E+00  -0.9095971698E-02   0.4186877584E-03   0.9096570022E-03   0.0000000000E+00   0.0000000000E+00   0.5357435493E+00  -0.7043320647E-01   0.0000000000E+00   0.2527508633E-01
  -0.1043447706E+00  -0.1682208611E-01   0.4122034117E-03   0.9084926946E-03   0.0000000000E+00   0.0000000000E+00   0.5032311286E+00  -0.6201388593E-01   0.0000000000E+00   0.4340641712E-01
   0.1319570274E+00  -0.1201725272E-01   0.2686444362E-02   0.9832476819E-03   0.0000000000E+00   0.0000000000E+00   0.4956631025E+00  -0.5887950501E-01   0.0000000000E+00  -0.1455017354E-01
   0.1321493122E+00  -0.3444429293E-02   0.2659801151E-02   0.9618775975E-03   0.0000000000E+00   0.0000000000E+00   0.5384284785E+00  -0.6165652527E-01   0.0000000000E+00  -0.5364950340E-02
   0.1247248656E+00   0.4175880725E-04   0.2609082577E-02   0.9277825502E-03   0.0000000000E+00   0.0000000000E+00   0.5637668640E+00  -0.6947215203E-01   0.0000000000E+00  -0.3108148888E-02
   0.9508749685E-01   0.3470056577E-01   0.2279533349E-02   0.6815798684E-03   0.0000000000E+00   0.0000000000E+00   0.7747432846E+00  -0.9968489008E-01   0.0000000000E+00   0.6210253224E-01
   0.8372777068E-01   0.9824018205E-02   0.2318495179E-02   0.7189123250E-03   0.0000000000E+00   0.0000000000E+00   0.7034855546E+00  -0.1078063499E+00   0.0000000000E+00  -0.1623886490E-01
   0.8280009950E-01   0.1485978360E-01   0.2285348100E-02   0.6950210001E-03   0.0000000000E+00   0.0000000000E+00   0.7306602819E+00  -0.1128558616E+00   0.0000000000E+00   0.9152718022E-03
   0.7712145738E-01   0.1577086280E-01   0.2239546077E-02   0.6609102953E-03   0.0000000000E+00   0.0000000000E+00   0.7601000823E+00  -0.1164296934E+00   0.0000000000E+00  -0.1080611710E-02
   0.7805062129E-01   0.1073601178E-01   0.2274185890E-02   0.6857158802E-03   0.0000000000E+00   0.0000000000E+00   0.7288457318E+00  -0.1120973825E+00   0.0000000000E+00  -0.2000811558E-01
  -0.8299823147E-01   0.1991912350E-01   0.7177065330E-03   0.6921217018E-03   0.0000000000E+00   0.0000000000E+00   0.7442605899E+00  -0.1130574189E+00   0.0000000000E+00  -0.2086660763E-01
  -0.8818467884E-01   0.1780723245E-01   0.6707814637E-03   0.7269217521E-03   0.0000000000E+00   0.0000000000E+00   0.7162904788E+00  -0.1080375984E+00   0.0000000000E+00  -0.1678346355E-01
  -0.9839765005E-01   0.1969395288E-01   0.6098595479E-03   0.7695619758E-03   0.0000000000E+00   0.0000000000E+00   0.6980433620E+00  -0.9907970469E-01   0.0000000000E+00  -0.2422072017E-01
  -0.9867732495E-01   0.2755019920E-01   0.6419095522E-03   0.7420825991E-03   0.0000000000E+00   0.0000000000E+00   0.7294087058E+00  -0.9678073070E-01   0.0000000000E+00  -0.4202517720E-01
  -0.1055325424E+00   0.2831356467E-01   0.5975806276E-03   0.7714559652E-03   0.0000000000E+00   0.0000000000E+00   0.7201760156E+00  -0.8765528832E-01   0.0000000000E+00  -0.4108698096E-01
  -0.1052508580E+00   0.2045652653E-01   0.5675400001E-03   0.7981435340E-03   0.0000000000E+00   0.0000000000E+00   0.6869637061E+00  -0.9201630800E-01   0.0000000000E+00  -0.2611642763E-01
   0.9400770624E-01  -0.3822183091E-01   0.2641743043E-02   0.8961945932E-03   0.0000000000E+00   0.0000000000E+00   0.3754066154E+00  -0.1662882544E-01   0.0000000000E+00  -0.8550175667E-01
  -0.7981549458E-01  -0.2257227720E-02   0.6205414155E-03   0.7564576296E-03   0.0000000000E+00   0.0000000000E+00   0.6364462324E+00  -0.8556848579E-01   0.0000000000E+00   0.5622973700E-01
  -0.7479763543E-01  -0.5064985799E-02   0.6345012679E-03   0.7399971706E-03   0.0000000000E+00   0.0000000000E+00   0.6360609670E+00  -0.7810269156E-01   0.0000000000E+00   0.7684217511E-01
  -0.7509250848E-01   0.1499889479E-02   0.6722668210E-03   0.7197699176E-03   0.0000000000E+00   0.0000000000E+00   0.6772903745E+00  -0.9182037316E-01   0.0000000000E+00   0.5631385435E-01
  -0.8988519858E-01  -0.2827086244E-01   0.4195486182E-03   0.8729217560E-03   0.0000000000E+00   0.0000000000E+00   0.4488700440E+00  -0.3322861204E-01   0.0000000000E+00   0.8191017947E-01
  -0.8558295550E-01   0.6943208599E-03   0.6013748019E-03   0.7751126276E-03   0.0000000000E+00   0.0000000000E+00   0.6397980083E+00  -0.9225963447E-01   0.0000000000E+00   0.3647785021E-01
  -0.9603205239E-01  -0.1506266278E-01   0.4614898143E-03   0.8693849153E-03   0.0000000000E+00   0.0000000000E+00   0.5254635803E+00  -0.6246054037E-01   0.0000000000E+00   0.5365543981E-01
  -0.9056271715E-01  -0.1158021555E-01   0.5077038485E-03   0.8357225544E-03   0.0000000000E+00   0.0000000000E+00   0.5548121611E+00  -0.6809919059E-01   0.0000000000E+00   0.5578933153E-01
  -0.9652155011E-01  -0.6401629089E-02   0.5015644884E-03   0.8474808215E-03   0.0000000000E+00   0.0000000000E+00   0.5748741553E+00  -0.7862364518E-01   0.0000000000E+00   0.3634392149E-01
   0.8235300425E-01  -0.3377157773E-02   0.2383084049E-02   0.7577538065E-03   0.0000000000E+00   0.0000000000E+00   0.6342327182E+00  -0.8279346553E-01   0.0000000000E+00  -0.6054495424E-01
   0.1061439166E+00  -0.1181035297E-01   0.2558993618E-02   0.8906015307E-03   0.0000000000E+00   0.0000000000E+00   0.5320775505E+00  -0.6912567057E-01   0.0000000000E+00  -0.3713805714E-01
   0.1107766197E+00  -0.1887593575E-01   0.2613203685E-02   0.9270201452E-03   0.0000000000E+00   0.0000000000E+00   0.4846355292E+00  -0.5969541292E-01   0.0000000000E+00  -0.4151823556E-01
   0.8959559612E-01  -0.2126974616E-01   0.2525734518E-02   0.8422583430E-03   0.0000000000E+00   0.0000000000E+00   0.5021013313E+00  -0.4598560355E-01   0.0000000000E+00  -0.8090851353E-01
   0.9726954690E-01  -0.3212085396E-01   0.2619725401E-02   0.9003204430E-03   0.0000000000E+00   0.0000000000E+00   0.4198420271E+00  -0.3268989272E-01   0.0000000000E+00  -0.7725254960E-01
   0.8138260261E-01   0.5221798287E-02   0.2327911710E-02   0.7236471567E-03   0.0000000000E+00   0.0000000000E+00   0.6859746677E+00  -0.1007765188E+00   0.0000000000E+00  -0.3581922671E-01
  -0.1083004154E+00   0.1350506899E-01   0.5197545734E-03   0.8350036915E-03   0.0000000000E+00   0.0000000000E+00   0.6498756685E+00  -0.8575793509E-01   0.0000000000E+00  -0.1289623222E-01
  -0.1122970077E+00   0.7054062135E-02   0.4700033264E-03   0.8719978350E-03   0.0000000000E+00   0.0000000000E+00   0.6126596942E+00  -0.8071244978E-01   0.0000000000E+00  -0.3126731239E-02
  -0.1110672344E+00  -0.1256808601E-02   0.4440855987E-03   0.8923316286E-03   0.0000000000E+00   0.0000000000E+00   0.5757106795E+00  -0.7644089092E-01   0.0000000000E+00   0.1153632708E-01
   0.1156148309E+00   0.1764510560E-01   0.2491070924E-02   0.8391346011E-03   0.0000000000E+00   0.0000000000E+00   0.6623332212E+00  -0.8145423084E-01   0.0000000000E+00   0.2021961011E-01
   0.1134402392E+00   0.2471045106E-01   0.2449804167E-02   0.8059784627E-03   0.0000000000E+00   0.0000000000E+00   0.6960941372E+00  -0.8482724441E-01   0.0000000000E+00   0.3356042109E-01
   0.1077094751E+00   0.1941394481E-01   0.2433196062E-02   0.7993770060E-03   0.0000000000E+00   0.0000000000E+00   0.6827031567E+00  -0.9113027500E-01   0.0000000000E+00   0.2431612934E-01
   0.9808352378E-01   0.2767953597E-01   0.2332193478E-02   0.7239649725E-03   0.0000000000E+00   0.0000000000E+00   0.7391187553E+00  -0.1026155691E+00   0.0000000000E+00   0.4429716292E-01
   0.8479231760E-01   0.1246603837E-02   0.2372042999E-02   0.7546946195E-03   0.0000000000E+00   0.0000000000E+00   0.6527326550E+00  -0.9280328879E-01   0.0000000000E+00  -0.4299065825E-01
   0.8810428778E-01  -0.2750234831E-02   0.2414199176E-02   0.7839636786E-03   0.0000000000E+00   0.0000000000E+00   0.6198631771E+00  -0.8457425336E-01   0.0000000000E+00  -0.4681901758E-01
   0.8925805719E-01   0.1228182382E-01   0.2343189989E-02   0.7378663213E-03   0.0000000000E+00   0.0000000000E+00   0.6980129317E+00  -0.1058179151E+00   0.0000000000E+00  -0.2682372794E-02
  -0.9237280849E-01   0.2207737227E-01   0.6617271133E-03   0.7317382678E-03   0.0000000000E+00   0.0000000000E+00   0.7235353432E+00  -0.1055942222E+00   0.0000000000E+00  -0.3048820161E-01
  -0.1014496326E+00   0.1274401291E-01   0.5596494392E-03   0.8079388117E-03   0.0000000000E+00   0.0000000000E+00   0.6602115003E+00  -0.9258430215E-01   0.0000000000E+00  -0.9657727689E-02
  -0.9592792475E-01  -0.3719074884E-01   0.3465703534E-03   0.9167953594E-03   0.0000000000E+00   0.0000000000E+00   0.3804713530E+00  -0.2545483203E-01   0.0000000000E+00   0.7690355977E-01
  -0.9174383900E-01  -0.4357369367E-01   0.3248779037E-03   0.9076061338E-03   0.0000000000E+00   0.0000000000E+00   0.3376364344E+00  -0.1104397243E-01   0.0000000000E+00   0.8429179284E-01
  -0.7523362904E-01   0.7763155333E-02   0.7077100604E-03   0.6979495027E-03   0.0000000000E+00   0.0000000000E+00   0.7135457724E+00  -0.1070416084E+00   0.0000000000E+00   0.3101814415E-01
  -0.7500173296E-01   0.1329856753E-01   0.7404372384E-03   0.6755070274E-03   0.0000000000E+00   0.0000000000E+00   0.7438990831E+00  -0.1144279031E+00   0.0000000000E+00   0.1060949467E-01
  -0.1278321917E+00  -0.2016805667E-01   0.2918072583E-03   0.9990726347E-03   0.0000000000E+00   0.0000000000E+00   0.4545844904E+00  -0.5307550898E-01   0.0000000000E+00   0.2506255137E-01
  -0.9342495528E-01  -0.3294746086E-01   0.3790614226E-03   0.8981202439E-03   0.0000000000E+00   0.0000000000E+00   0.4120872712E+00  -0.2951359309E-01   0.0000000000E+00   0.7876481056E-01
  -0.7551169394E-01   0.2035116892E-01   0.7748007568E-03   0.6499823172E-03   0.0000000000E+00   0.0000000000E+00   0.7746456132E+00  -0.1190386744E+00   0.0000000000E+00  -0.2073963917E-01
   0.1121452921E+00  -0.1257765766E-02   0.2545299126E-02   0.8848002538E-03   0.0000000000E+00   0.0000000000E+00   0.5776860353E+00  -0.7817416579E-01   0.0000000000E+00  -0.1264303737E-01
   0.1186658103E+00  -0.4386504105E-02   0.2593014308E-02   0.9186105651E-03   0.0000000000E+00   0.0000000000E+00   0.5514195189E+00  -0.7199412419E-01   0.0000000000E+00  -0.1268386776E-01
   0.1182046525E+00   0.3171581386E-02   0.2561672455E-02   0.8950564860E-03   0.0000000000E+00   0.0000000000E+00   0.5899845516E+00  -0.7518623599E-01   0.0000000000E+00  -0.2328102063E-02
   0.1110156682E+00   0.5546275443E-02   0.2510866165E-02   0.8595259027E-03   0.0000000000E+00   0.0000000000E+00   0.6123779596E+00  -0.8306335757E-01   0.0000000000E+00  -0.1238273440E-02
   0.1170770688E+00   0.9975675417E-02   0.2529279763E-02   0.8698347165E-03   0.0000000000E+00   0.0000000000E+00   0.6237249404E+00  -0.8050673676E-01   0.0000000000E+00   0.9094080202E-02
   0.1000100555E+00  -0.3488295426E-02   0.2487185789E-02   0.8409226344E-03   0.0000000000E+00   0.0000000000E+00   0.5882616306E+00  -0.8096330779E-01   0.0000000000E+00  -0.2955989608E-01
   0.1054665645E+00  -0.5845202822E-02   0.2528389501E-02   0.8711728782E-03   0.0000000000E+00   0.0000000000E+00   0.5659866013E+00  -0.7567375372E-01   0.0000000000E+00  -0.2796910624E-01
   0.1066891454E+00   0.1100082319E-02   0.2504458379E-02   0.8554907013E-03   0.0000000000E+00   0.0000000000E+00   0.5996549833E+00  -0.8413142668E-01   0.0000000000E+00  -0.1293759117E-01
  -0.8480023968E-01  -0.1453188154E-01   0.5218870197E-03   0.8169505642E-03   0.0000000000E+00   0.0000000000E+00   0.5502624624E+00  -0.6026744269E-01   0.0000000000E+00   0.7446037415E-01
  -0.8528395567E-01  -0.5871356564E-02   0.5677360315E-03   0.7945377360E-03   0.0000000000E+00   0.0000000000E+00   0.6025675285E+00  -0.7684164374E-01   0.0000000000E+00   0.5564418518E-01
  -0.9420975796E-01   0.1542426690E-01   0.6186763352E-03   0.7651993029E-03   0.0000000000E+00   0.0000000000E+00   0.6905407706E+00  -0.1007071478E+00   0.0000000000E+00  -0.1113866678E-01
   0.8713708355E-01   0.5849321179E-02   0.2362224355E-02   0.7504567390E-03   0.0000000000E+00   0.0000000000E+00   0.6725964938E+00  -0.9959716238E-01   0.0000000000E+00  -0.2367032720E-01
   0.9466902371E-01  -0.4279306521E-02   0.2460623311E-02   0.8194750287E-03   0.0000000000E+00   0.0000000000E+00   0.5975200875E+00  -0.8113448573E-01   0.0000000000E+00  -0.3958549676E-01
   0.1001594946E+00   0.2060835902E-01   0.2377784316E-02   0.7604183197E-03   0.0000000000E+00   0.0000000000E+00   0.7064055316E+00  -0.9878846480E-01   0.0000000000E+00   0.2536182887E-01
  -0.1032443692E+00  -0.2045510262E-02   0.4842758436E-03   0.8632203876E-03   0.0000000000E+00   0.0000000000E+00   0.5829313037E+00  -0.8019277679E-01   0.0000000000E+00   0.1921944356E-01
   0.1128203150E+00  -0.7222613926E-02   0.2573575013E-02   0.9045315436E-03   0.0000000000E+00   0.0000000000E+00   0.5457167142E+00  -0.7198742836E-01   0.0000000000E+00  -0.2215249041E-01
  -0.9965948720E-01  -0.3383759837E-01   0.3503788034E-03   0.9268405348E-03   0.0000000000E+00   0.0000000000E+00   0.4038978232E+00  -0.3509971087E-01   0.0000000000E+00   0.7000230114E-01
           1           4           6           6
           4           2           5           5
           5           3           6           6
           4           5           6           6
           7          10          12          12
          10           8          11          11
          11           9          12          12
          10          11          12          12
          13          16          18          18
          16          14          17          17
          17          15          18          18
          16          17          18          18
          19          22          24          24
          22          20          23          23
          23          21          24          24
          22          23          24          24
          25          28          30          30
          28          26          29          29
          29          27          30          30
          28          29          30          30
          31          34          36          36
          34          32          35          35
          35          33          36          36
          34          35          36          36
          37          40          42          42
          40          38          41          41
          41          39          42          42
          40          41          42          42
          43          46          48          48
          46          44          47          47
          47          45          48          48
          46          47          48          48
          49          52          54          54
          52          50          53          53
          53          51          54          54
          52          53          54          54
          55          58          60          60
          58          56          59          59
          59          57          60          60
          58          59          60          60
          61          62          63          63
          62          55          60          60
          60          57          63          63
          62          60          63          63
          64          67          69          69
          67          65          68          68
          68          66          69          69
          67          68          69          69
          70          73          75          75
          73          71          74          74
          74          72          75          75
          73          74          75          75
          76          79          81          81
          79          77          80          80
          80          78          81          81
          79          80          81          81
          82          85          87          87
          85          83          86          86
          86          84          87          87
          85          86          87          87
          88          90          92          92
          90          82          91          91
          91          89          92          92
          90          91          92          92
          93          96          98          98
          96          94          97          97
          97          95          98          98
          96          97          98          98
          99         102         104         104
         102         100         103         103
         103         101         104         104
         102         103         104         104
         105         108         110         110
         108         106         109         109
         109         107         110         110
         108         109         110         110
         111         114         116         116
         114         112         115         115
         115         113         116         116
         114         115         116         116
         100         118         120         120
         118         117         119         119
         119         111         120         120
         118         119         120         120
         112         123         125         125
         123         121         124         124
         124         122         125         125
         123         124         125         125
          14         128         130         130
         128         126         129         129
         129         127         130         130
         128         129         130         130
         131         134         136         136
         134         132         135         135
         135         133         136         136
         134         135         136         136
         137         139         141         141
         139         138         140         140
         140           3         141         141
         139         140         141         141
         142         144         146         146
         144         143         145         145
         145           2         146         146
         144         145         146         146
         147         150         152         152
         150         148         151         151
         151         149         152         152
         150         151         152         152
         153         156         158         158
         156         154         157         157
         157         155         158         158
         156         157         158         158
         159         161         163         163
         161         149         162         162
         162         160         163         163
         161         162         163         163
         164         167         169         169
         167         165         168         168
         168         166         169         169
         167         168         169         169
         170         172         174         174
         172         171         173         173
         173          25         174         174
         172         173         174         174
         165         177         179         179
         177         175         178         178
         178         176         179         179
         177         178         179         179
         180         182         184         184
         182         160         183         183
         183         181         184         184
         182         183         184         184
         175         187         189         189
         187         185         188         188
         188         186         189         189
         187         188         189         189
          27          29         192         192
          29          26         191         191
         191         190         192         192
          29         191         192         192
         193         196         198         198
         196         194         197         197
         197         195         198         198
         196         197         198         198
          27         192         201         201
         192         190         200         200
         200         199         201         201
         192         200         201         201
         194         204         206         206
         204         202         205         205
         205         203         206         206
         204         205         206         206
         199         200         209         209
         200         190         208         208
         208         207         209         209
         200         208         209         209
         194         206         197         197
         206         203         210         210
         210         195         197         197
         206         210         197         197
         202         212         205         205
         212         211         213         213
         213         203         205         205
         212         213         205         205
         214         215         216         216
         215         199         209         209
         209         207         216         216
         215         209         216         216
         107         218         220         220
         218         217         219         219
         219         211         220         220
         218         219         220         220
         221         223         225         225
         223         214         224         224
         224         222         225         225
         223         224         225         225
         106         227         229         229
         227         226         228         228
         228         217         229         229
         227         228         229         229
         222         232         234         234
         232         230         233         233
         233         231         234         234
         232         233         234         234
         113         235         237         237
         235         122         236         236
         236         226         237         237
         235         236         237         237
         214         240         242         242
         240         238         241         241
         241         239         242         242
         240         241         242         242
         143         245         247         247
         245         243         246         246
         246         244         247         247
         245         246         247         247
         248         251         253         253
         251         249         252         252
         252         250         253         253
         251         252         253         253
         254         257         259         259
         257         255         258         258
         258         256         259         259
         257         258         259         259
         260         262         264         264
         262         261         263         263
         263         185         264         264
         262         263         264         264
         265         267         269         269
         267         260         268         268
         268         266         269         269
         267         268         269         269
         270         273         275         275
         273         271         274         274
         274         272         275         275
         273         274         275         275
         276         279         281         281
         279         277         280         280
         280         278         281         281
         279         280         281         281
         282         285         287         287
         285         283         286         286
         286         284         287         287
         285         286         287         287
         288         290         292         292
         290         289         291         291
         291         283         292         292
         290         291         292         292
         282         294         285         285
         294         293         295         295
         295         283         285         285
         294         295         285         285
         296         298         300         300
         298         284         299         299
         299         297         300         300
         298         299         300         300
         301         303         305         305
         303         105         304         304
         304         302         305         305
         303         304         305         305
          64         307          67          67
         307         306         308         308
         308          65          67          67
         307         308          67          67
          72         309         311         311
         309          64         310         310
         310         117         311         311
         309         310         311         311
          99         312         102         102
         312          72         313         313
         313         100         102         102
         312         313         102         102
          93          98         316         316
          98          95         315         315
         315         314         316         316
          98         315         316         316
          93         316         319         319
         316         314         318         318
         318         317         319         319
         316         318         319         319
         317         318         322         322
         318         314         321         321
         321         320         322         322
         318         321         322         322
         323         326         328         328
         326         324         327         327
         327         325         328         328
         326         327         328         328
         325         329         331         331
         329         306         330         330
         330          71         331         331
         329         330         331         331
         332         333         334         334
         333         324         326         326
         326         323         334         334
         333         326         334         334
         335         337         339         339
         337          45         338         338
         338         336         339         339
         337         338         339         339
         340         341         343         343
         341          45         342         342
         342          56         343         343
         341         342         343         343
         344         345         346         346
         345          49          54          54
          54          51         346         346
         345          54         346         346
         347         348         349         349
         348          43          48          48
          48          45         349         349
         348          48         349         349
          50         350         351         351
         350          43         348         348
         348         347         351         351
         350         348         351         351
         352         355         357         357
         355         353         356         356
         356         354         357         357
         355         356         357         357
         358         361         363         363
         361         359         362         362
         362         360         363         363
         361         362         363         363
         364         367         369         369
         367         365         368         368
         368         366         369         369
         367         368         369         369
         370         372         374         374
         372         364         373         373
         373         371         374         374
         372         373         374         374
          31          36         376         376
          36          33         375         375
         375         365         376         376
          36         375         376         376
          33         379         381         381
         379         377         380         380
         380         378         381         381
         379         380         381         381
         360         384         386         386
         384         382         385         385
         385         383         386         386
         384         385         386         386
          43         388          46          46
         388         387         389         389
         389          44          46          46
         388         389          46          46
         390         393         395         395
         393         391         394         394
         394         392         395         395
         393         394         395         395
         396         398         400         400
         398         397         399         399
         399         132         400         400
         398         399         400         400
           8         402         404         404
         402         401         403         403
         403         396         404         404
         402         403         404         404
         405         408         410         410
         408         406         409         409
         409         407         410         410
         408         409         410         410
          19          24         413         413
          24          21         412         412
         412         411         413         413
          24         412         413         413
          19         413         416         416
         413         411         415         415
         415         414         416         416
         413         415         416         416
         414         415         419         419
         415         411         418         418
         418         417         419         419
         415         418         419         419
         420         423         425         425
         423         421         424         424
         424         422         425         425
         423         424         425         425
         426         427         429         429
         427         420         428         428
         428         405         429         429
         427         428         429         429
         420         425         431         431
         425         422         430         430
         430         406         431         431
         425         430         431         431
         432         434         436         436
         434         433         435         435
         435         426         436         436
         434         435         436         436
           9          11         439         439
          11           8         438         438
         438         437         439         439
          11         438         439         439
           7         442         444         444
         442         440         443         443
         443         441         444         444
         442         443         444         444
         445         448         450         450
         448         446         449         449
         449         447         450         450
         448         449         450         450
         451         453         455         455
         453         452         454         454
         454         447         455         455
         453         454         455         455
         456         459         461         461
         459         457         460         460
         460         458         461         461
         459         460         461         461
         462         464         466         466
         464         463         465         465
         465         199         466         466
         464         465         466         466
         231         233         468         468
         233         230         467         467
         467         387         468         468
         233         467         468         468
          45          47         338         338
          47          44         469         469
         469         336         338         338
          47         469         338         338
         335         339         472         472
         339         336         471         471
         471         470         472         472
         339         471         472         472
          50         473         350         350
         473         392         474         474
         474          43         350         350
         473         474         350         350
          43         475         388         388
         475         231         468         468
         468         387         388         388
         475         468         388         388
         306         476         477         477
         476         335         472         472
         472         470         477         477
         476         472         477         477
         324         479         327         327
         479         478         480         480
         480         325         327         327
         479         480         327         327
         481         483         485         485
         483         323         484         484
         484         482         485         485
         483         484         485         485
         306         477         308         308
         477         470         486         486
         486          65         308         308
         477         486         308         308
         117         488         490         490
         488          66         489         489
         489         487         490         490
         488         489         490         490
          77         492          80          80
         492         491         493         493
         493          78          80          80
         492         493          80          80
         463         494         465         465
         494          27         201         201
         201         199         465         465
         494         201         465         465
          25         496          28          28
         496         495         497         497
         497          26          28          28
         496         497          28          28
         106         498         227         227
         498         113         237         237
         237         226         227         227
         498         237         227         227
         302         499         501         501
         499         107         500         500
         500         202         501         501
         499         500         501         501
         502         503         504         504
         503          27         494         494
         494         463         504         504
         503         494         504         504
         171         505         173         173
         505         495         496         496
         496          25         173         173
         505         496         173         173
         107         109         218         218
         109         106         229         229
         229         217         218         218
         109         229         218         218
         105         506         108         108
         506         491         507         507
         507         106         108         108
         506         507         108         108
         502         508         503         503
         508          25          30          30
          30          27         503         503
         508          30         503         503
         171         509         505         505
         509         181         510         510
         510         495         505         505
         509         510         505         505
         202         500         212         212
         500         107         220         220
         220         211         212         212
         500         220         212         212
         511         514         516         516
         514         512         515         515
         515         513         516         516
         514         515         516         516
         517         519         521         521
         519         502         520         520
         520         518         521         521
         519         520         521         521
         180         184         522         522
         184         181         509         509
         509         171         522         522
         184         509         522         522
         193         198         525         525
         198         195         524         524
         524         523         525         525
         198         524         525         525
         272         528         530         530
         528         526         529         529
         529         527         530         530
         528         529         530         530
         531         532         533         533
         532         180         522         522
         522         171         533         533
         532         522         533         533
         159         163         534         534
         163         160         182         182
         182         180         534         534
         163         182         534         534
         185         535         188         188
         535         523         536         536
         536         186         188         188
         535         536         188         188
         513         537         538         538
         537         194         196         196
         196         193         538         538
         537         196         538         538
         539         540         541         541
         540         159         534         534
         534         180         541         541
         540         534         541         541
         147         152         542         542
         152         149         161         161
         161         159         542         542
         152         161         542         542
         185         543         535         535
         543         193         525         525
         525         523         535         535
         543         525         535         535
         544         545         546         546
         545         302         501         501
         501         202         546         546
         545         501         546         546
         133         548         550         550
         548         147         549         549
         549         547         550         550
         548         549         550         550
         132         551         552         552
         551         148         150         150
         150         147         552         552
         551         150         552         552
         175         189         178         178
         189         186         553         553
         553         176         178         178
         189         553         178         178
         513         554         537         537
         554         544         555         555
         555         194         537         537
         554         555         537         537
         556         557         559         559
         557         547         558         558
         558         539         559         559
         557         558         559         559
         132         399         551         551
         399         397         560         560
         560         148         551         551
         399         560         551         551
         165         179         168         168
         179         176         561         561
         561         166         168         168
         179         561         168         168
         266         562         563         563
         562         175         177         177
         177         165         563         563
         562         177         563         563
         164         169         566         566
         169         166         565         565
         565         564         566         566
         169         565         566         566
         567         569         571         571
         569         568         570         570
         570         254         571         571
         569         570         571         571
         437         572         574         574
         572         396         573         573
         573         131         574         574
         572         573         574         574
         396         403         398         398
         403         401         575         575
         575         397         398         398
         403         575         398         398
         222         576         232         232
         576         239         577         577
         577         230         232         232
         576         577         232         232
         391         578         394         394
         578         231         579         579
         579         392         394         394
         578         579         394         394
         117         310         488         488
         310          64          69          69
          69          66         488         488
         310          69         488         488
         112         580         581         581
         580         117         490         490
         490         487         581         581
         580         490         581         581
         112         581         123         123
         581         487         582         582
         582         121         123         123
         581         582         123         123
         112         125         115         115
         125         122         235         235
         235         113         115         115
         125         235         115         115
          56         342         583         583
         342          45         337         337
         337         335         583         583
         342         337         583         583
         584         586         588         588
         586         585         587         587
         587          49         588         588
         586         587         588         588
         585         591         593         593
         591         589         592         592
         592         590         593         593
         591         592         593         593
         392         579         474         474
         579         231         475         475
         475          43         474         474
         579         475         474         474
          57         594         596         596
         594         335         595         595
         595         478         596         596
         594         595         596         596
         597         598         599         599
         598          55          62          62
          62          61         599         599
         598          62         599         599
         323         328         602         602
         328         325         601         601
         601         600         602         602
         328         601         602         602
         478         595         603         603
         595         335         476         476
         476         306         603         603
         595         476         603         603
         604         607         609         609
         607         605         608         608
         608         606         609         609
         607         608         609         609
          71         330         610         610
         330         306         307         307
         307          64         610         610
         330         307         610         610
         214         216         240         240
         216         207         611         611
         611         238         240         240
         216         611         240         240
         214         242         224         224
         242         239         576         576
         576         222         224         224
         242         576         224         224
         111         119         114         114
         119         117         580         580
         580         112         114         114
         119         580         114         114
         101         612         614         614
         612         113         613         613
         613         491         614         614
         612         613         614         614
         221         615         223         223
         615         199         215         215
         215         214         223         223
         615         215         223         223
         391         616         578         578
         616         222         234         234
         234         231         578         578
         616         234         578         578
         617         618         619         619
         618         302         545         545
         545         544         619         619
         618         545         619         619
         491         613         507         507
         613         113         498         498
         498         106         507         507
         613         498         507         507
         462         466         620         620
         466         199         615         615
         615         221         620         620
         466         615         620         620
         518         520         621         621
         520         502         504         504
         504         463         621         621
         520         504         621         621
         302         304         499         499
         304         105         110         110
         110         107         499         499
         304         110         499         499
         301         622         303         303
         622          78         623         623
         623         105         303         303
         622         623         303         303
         422         424         626         626
         424         421         625         625
         625         624         626         626
         424         625         626         626
         170         174         627         627
         174          25         508         508
         508         502         627         627
         174         508         627         627
         544         546         555         555
         546         202         204         204
         204         194         555         555
         546         204         555         555
         617         628         618         618
         628         301         305         305
         305         302         618         618
         628         305         618         618
         517         629         519         519
         629         170         627         627
         627         502         519         519
         629         627         519         519
         531         533         630         630
         533         171         172         172
         172         170         630         630
         533         172         630         630
         631         632         633         633
         632         531         630         630
         630         170         633         633
         632         630         633         633
         539         541         634         634
         541         180         532         532
         532         531         634         634
         541         532         634         634
         261         635         263         263
         635         193         543         543
         543         185         263         263
         635         543         263         263
         636         639         641         641
         639         637         640         640
         640         638         641         641
         639         640         641         641
         642         643         644         644
         643         539         634         634
         634         531         644         644
         643         634         644         644
         547         645         558         558
         645         159         540         540
         540         539         558         558
         645         540         558         558
         261         646         635         635
         646         513         538         538
         538         193         635         635
         646         538         635         635
         647         650         652         652
         650         648         651         651
         651         649         652         652
         650         651         652         652
         382         654         656         656
         654         653         655         655
         655         556         656         656
         654         655         656         656
         547         549         645         645
         549         147         542         542
         542         159         645         645
         549         542         645         645
         260         264         657         657
         264         185         187         187
         187         175         657         657
         264         187         657         657
         649         660         662         662
         660         658         661         661
         661         659         662         662
         660         661         662         662
         624         663         665         665
         663         133         664         664
         664         653         665         665
         663         664         665         665
         133         135         548         548
         135         132         552         552
         552         147         548         548
         135         552         548         548
         266         268         562         562
         268         260         657         657
         657         175         562         562
         268         657         562         562
         527         666         668         668
         666         511         667         667
         667         261         668         668
         666         667         668         668
         421         669         625         625
         669         131         670         670
         670         624         625         625
         669         670         625         625
         131         573         134         134
         573         396         400         400
         400         132         134         134
         573         400         134         134
         255         671         672         672
         671         165         167         167
         167         164         672         672
         671         167         672         672
         659         673         675         675
         673         567         674         674
         674         250         675         675
         673         674         675         675
         676         677         679         679
         677         564         678         678
         678         154         679         679
         677         678         679         679
         256         258         680         680
         258         255         672         672
         672         164         680         680
         258         672         680         680
          51         681         683         683
         681         347         682         682
         682         340         683         683
         681         682         683         683
         684         687         689         689
         687         685         688         688
         688         686         689         689
         687         688         689         689
         690         691         692         692
         691         222         616         616
         616         391         692         692
         691         616         692         692
         390         395         695         695
         395         392         694         694
         694         693         695         695
         395         694         695         695
          72          74         309         309
          74          71         610         610
         610          64         309         309
          74         610         309         309
         100         313         118         118
         313          72         311         311
         311         117         118         118
         313         311         118         118
         696         699         701         701
         699         697         700         700
         700         698         701         701
         699         700         701         701
         325         480         329         329
         480         478         603         603
         603         306         329         329
         480         603         329         329
         462         620         703         703
         620         221         702         702
         702         690         703         703
         620         702         703         703
         690         702         691         691
         702         221         225         225
         225         222         691         691
         702         225         691         691
         101         704         612         612
         704         111         116         116
         116         113         612         612
         704         116         612         612
         101         103         704         704
         103         100         120         120
         120         111         704         704
         103         120         704         704
         705         708         710         710
         708         706         709         709
         709         707         710         710
         708         709         710         710
         340         682         341         341
         682         347         349         349
         349          45         341         341
         682         349         341         341
         711         713         715         715
         713         712         714         714
         714         597         715         715
         713         714         715         715
          57          59         594         594
          59          56         583         583
         583         335         594         594
          59         583         594         594
         716         717         718         718
         717         301         628         628
         628         617         718         718
         717         628         718         718
          70          75         719         719
          75          72         312         312
         312          99         719         719
          75         312         719         719
         693         694         720         720
         694         392         473         473
         473          50         720         720
         694         473         720         720
         590         721         722         722
         721         690         692         692
         692         391         722         722
         721         692         722         722
         716         724         717         717
         724         723         725         725
         725         301         717         717
         724         725         717         717
          78         493         623         623
         493         491         506         506
         506         105         623         623
         493         506         623         623
         726         727         728         728
         727         463         464         464
         464         462         728         728
         727         464         728         728
         354         729         730         730
         729         517         521         521
         521         518         730         730
         729         521         730         730
         512         731         515         515
         731         544         554         554
         554         513         515         515
         731         554         515         515
         732         733         734         734
         733         512         514         514
         514         511         734         734
         733         514         734         734
         353         735         356         356
         735         517         729         729
         729         354         356         356
         735         729         356         356
         631         633         736         736
         633         170         629         629
         629         517         736         736
         633         629         736         736
         512         737         731         731
         737         617         619         619
         619         544         731         731
         737         619         731         731
         738         739         740         740
         739         716         718         718
         718         617         740         740
         739         718         740         740
         353         741         735         735
         741         631         736         736
         736         517         735         735
         741         736         735         735
         642         644         742         742
         644         531         632         632
         632         631         742         742
         644         632         742         742
         511         516         667         667
         516         513         646         646
         646         261         667         667
         516         646         667         667
         732         743         733         733
         743         738         744         744
         744         512         733         733
         743         744         733         733
         745         746         747         747
         746         642         742         742
         742         631         747         747
         746         742         747         747
         556         559         748         748
         559         539         643         643
         643         642         748         748
         559         643         748         748
         527         668         749         749
         668         261         262         262
         262         260         749         749
         668         262         749         749
         271         751         753         753
         751         750         752         752
         752         526         753         753
         751         752         753         753
         754         755         756         756
         755         556         748         748
         748         642         756         756
         755         748         756         756
         653         757         655         655
         757         547         557         557
         557         556         655         655
         757         557         655         655
         265         758         267         267
         758         527         749         749
         749         260         267         267
         758         749         267         267
         759         760         762         762
         760         659         761         761
         761         249         762         762
         760         761         762         762
         359         764         766         766
         764         422         765         765
         765         763         766         766
         764         765         766         766
         653         664         757         757
         664         133         550         550
         550         547         757         757
         664         550         757         757
         568         767         769         769
         767         266         768         768
         768         255         769         769
         767         768         769         769
         770         772         774         774
         772         759         773         773
         773         771         774         774
         772         773         774         774
         421         775         669         669
         775         437         574         574
         574         131         669         669
         775         574         669         669
         624         670         663         663
         670         131         136         136
         136         133         663         663
         670         136         663         663
         776         777         779         779
         777         250         778         778
         778         254         779         779
         777         778         779         779
         255         768         671         671
         768         266         563         563
         563         165         671         671
         768         563         671         671
         780         781         782         782
         781         405         410         410
         410         407         782         782
         781         410         782         782
           8         404         438         438
         404         396         572         572
         572         437         438         438
         404         572         438         438
          51          53         681         681
          53          50         351         351
         351         347         681         681
          53         351         681         681
         585         783         587         587
         783         390         784         784
         784          49         587         587
         783         784         587         587
         785         786         788         788
         786         482         787         787
         787          70         788         788
         786         787         788         788
         600         601         789         789
         601         325         331         331
         331          71         789         789
         601         331         789         789
         790         791         792         792
         791          51         683         683
         683         340         792         792
         791         683         792         792
         344         346         793         793
         346          51         791         791
         791         790         793         793
         346         791         793         793
          77         794         492         492
         794         101         614         614
         614         491         492         492
         794         614         492         492
         795         796         797         797
         796         101         794         794
         794          77         797         797
         796         794         797         797
         798         799         800         800
         799         597         599         599
         599          61         800         800
         799         599         800         800
         324         801         479         479
         801          57         596         596
         596         478         479         479
         801         596         479         479
         597         802         598         598
         802         790         803         803
         803          55         598         598
         802         803         598         598
          55         804          58          58
         804         340         343         343
         343          56          58          58
         804         343          58          58
          76          81         806         806
          81          78         805         805
         805         723         806         806
          81         805         806         806
         785         788         807         807
         788          70         719         719
         719          99         807         807
         788         719         807         807
         589         808         592         592
         808         462         809         809
         809         590         592         592
         808         809         592         592
         590         809         721         721
         809         462         703         703
         703         690         721         721
         809         703         721         721
         589         810         808         808
         810         726         728         728
         728         462         808         808
         810         728         808         808
         726         811         727         727
         811         518         621         621
         621         463         727         727
         811         621         727         727
         812         813         814         814
         813         716         739         739
         739         738         814         814
         813         739         814         814
         723         805         725         725
         805          78         622         622
         622         301         725         725
         805         622         725         725
         815         816         817         817
         816         518         811         811
         811         726         817         817
         816         811         817         817
         818         820         822         822
         820         358         821         821
         821         819         822         822
         820         821         822         822
         738         740         744         744
         740         617         737         737
         737         512         744         744
         740         737         744         744
         812         823         813         813
         823         697         824         824
         824         716         813         813
         823         824         813         813
         685         825         826         826
         825         353         355         355
         355         352         826         826
         825         355         826         826
         745         747         827         827
         747         631         741         741
         741         353         827         827
         747         741         827         827
         526         828         529         529
         828         511         666         666
         666         527         529         529
         828         666         529         529
         829         830         831         831
         830         812         814         814
         814         738         831         831
         830         814         831         831
         832         833         835         835
         833         745         834         834
         834         685         835         835
         833         834         835         835
         754         756         836         836
         756         642         746         746
         746         745         836         836
         756         746         836         836
         526         837         828         828
         837         732         734         734
         734         511         828         828
         837         734         828         828
         838         841         843         843
         841         839         842         842
         842         840         843         843
         841         842         843         843
         832         844         833         833
         844         754         836         836
         836         745         833         833
         844         836         833         833
         382         656         845         845
         656         556         755         755
         755         754         845         845
         656         755         845         845
         272         530         846         846
         530         527         758         758
         758         265         846         846
         530         758         846         846
         750         847         849         849
         847         829         848         848
         848         732         849         849
         847         848         849         849
         850         853         855         855
         853         851         854         854
         854         852         855         855
         853         854         855         855
         763         856         857         857
         856         653         654         654
         654         382         857         857
         856         654         857         857
         858         859         861         861
         859         265         860         860
         860         568         861         861
         859         860         861         861
         862         865         867         867
         865         863         866         866
         866         864         867         867
         865         866         867         867
         250         674         778         778
         674         567         571         571
         571         254         778         778
         674         571         778         778
         568         860         767         767
         860         265         269         269
         269         266         767         767
         860         269         767         767
         868         871         873         873
         871         869         872         872
         872         870         873         873
         871         872         873         873
         763         874         856         856
         874         624         665         665
         665         653         856         856
         874         665         856         856
         422         626         765         765
         626         624         874         874
         874         763         765         765
         626         874         765         765
         875         876         877         877
         876         359         361         361
         361         358         877         877
         876         361         877         877
         676         878         677         677
         878         164         566         566
         566         564         677         677
         878         566         677         677
         879         880         882         882
         880         771         881         881
         881         249         882         882
         880         881         882         882
          61          63         883         883
          63          57         801         801
         801         324         883         883
          63         801         883         883
         884         885         886         886
         885         711         715         715
         715         597         886         886
         885         715         886         886
         887         890         892         892
         890         888         891         891
         891         889         892         892
         890         891         892         892
         790         792         803         803
         792         340         804         804
         804          55         803         803
         792         804         803         803
         707         893         894         894
         893         684         689         689
         689         686         894         894
         893         689         894         894
          49         895          52          52
         895         693         720         720
         720          50          52          52
         895         720          52          52
         482         896         787         787
         896         600         897         897
         897          70         787         787
         896         897         787         787
         606         898         899         899
         898         696         701         701
         701         698         899         899
         898         701         899         899
          70         897          73          73
         897         600         789         789
         789          71          73          73
         897         789          73          73
         785         807         901         901
         807          99         900         900
         900         795         901         901
         807         900         901         901
         390         902         393         393
         902         590         722         722
         722         391         393         393
         902         722         393         393
         390         695         784         784
         695         693         895         895
         895          49         784         784
         695         895         784         784
         815         817         903         903
         817         726         810         810
         810         589         903         903
         817         810         903         903
         585         593         783         783
         593         590         902         902
         902         390         783         783
         593         902         783         783
         795         900         796         796
         900          99         104         104
         104         101         796         796
         900         104         796         796
          76         904          79          79
         904         795         797         797
         797          77          79          79
         904         797          79          79
         905         906         908         908
         906         723         907         907
         907         697         908         908
         906         907         908         908
         909         910         911         911
         910         481         485         485
         485         482         911         911
         910         485         911         911
         912         913         914         914
         913         815         903         903
         903         589         914         914
         913         903         914         914
         815         915         816         816
         915         354         730         730
         730         518         816         816
         915         730         816         816
         916         917         918         918
         917         812         830         830
         830         829         918         918
         917         830         918         918
         697         907         824         824
         907         723         724         724
         724         716         824         824
         907         724         824         824
         919         920         921         921
         920         354         915         915
         915         815         921         921
         920         915         921         921
         686         688         922         922
         688         685         826         826
         826         352         922         922
         688         826         922         922
         829         831         848         848
         831         738         743         743
         743         732         848         848
         831         743         848         848
         916         923         917         917
         923         698         924         924
         924         812         917         917
         923         924         917         917
         925         927         929         929
         927         851         928         928
         928         926         929         929
         927         928         929         929
         685         834         825         825
         834         745         827         827
         827         353         825         825
         834         827         825         825
         750         849         752         752
         849         732         837         837
         837         526         752         752
         849         837         752         752
         840         930         931         931
         930         916         918         918
         918         829         931         931
         930         918         931         931
         932         933         935         935
         933         832         934         934
         934         684         935         935
         933         934         935         935
         383         936         937         937
         936         754         844         844
         844         832         937         937
         936         844         937         937
         271         753         274         274
         753         526         528         528
         528         272         274         274
         753         528         274         274
         938         939         941         941
         939         840         940         940
         940         750         941         941
         939         940         941         941
         819         942         944         944
         942         383         943         943
         943         932         944         944
         942         943         944         944
         383         385         936         936
         385         382         845         845
         845         754         936         936
         385         845         936         936
         945         947         949         949
         947         946         948         948
         948         770         949         949
         947         948         949         949
         858         950         859         859
         950         272         846         846
         846         265         859         859
         950         846         859         859
         270         275         951         951
         275         272         950         950
         950         858         951         951
         275         950         951         951
         952         954         956         956
         954         953         955         955
         955         862         956         956
         954         955         956         956
         957         959         961         961
         959         958         960         960
         960         850         961         961
         959         960         961         961
         360         962         384         384
         962         763         857         857
         857         382         384         384
         962         857         384         384
         963         966         968         968
         966         964         967         967
         967         965         968         968
         966         967         968         968
         254         570         257         257
         570         568         769         769
         769         255         257         257
         570         769         257         257
         359         766         362         362
         766         763         962         962
         962         360         362         362
         766         962         362         362
         851         969         928         928
         969         875         970         970
         970         926         928         928
         969         970         928         928
         971         973         975         975
         973         972         974         974
         974         452         975         975
         973         974         975         975
         433         976         977         977
         976         437         775         775
         775         421         977         977
         976         775         977         977
         482         484         896         896
         484         323         602         602
         602         600         896         896
         484         602         896         896
         978         979         981         981
         979          76         980         980
         980         905         981         981
         979         980         981         981
         712         982         714         714
         982         790         802         802
         802         597         714         714
         982         802         714         714
         983         986         988         988
         986         984         987         987
         987         985         988         988
         986         987         988         988
         978         989         979         979
         989         795         904         904
         904          76         979         979
         989         904         979         979
         905         980         906         906
         980          76         806         806
         806         723         906         906
         980         806         906         906
         990         993         995         995
         993         991         994         994
         994         992         995         995
         993         994         995         995
         332         996         333         333
         996          61         883         883
         883         324         333         333
         996         883         333         333
         798         800         997         997
         800          61         996         996
         996         332         997         997
         800         996         997         997
         998        1001        1003        1003
        1001         999        1002        1002
        1002        1000        1003        1003
        1001        1002        1003        1003
         912         914        1004        1004
         914         589         591         591
         591         585        1004        1004
         914         591        1004        1004
         584         588        1005        1005
         588          49         345         345
         345         344        1005        1005
         588         345        1005        1005
         605        1006        1008        1008
        1006         905        1007        1007
        1007         696        1008        1008
        1006        1007        1008        1008
         909         911        1009        1009
         911         482         786         786
         786         785        1009        1009
         911         786        1009        1009
         909        1009        1011        1011
        1009         785        1010        1010
        1010         978        1011        1011
        1009        1010        1011        1011
         978        1010         989         989
        1010         785         901         901
         901         795         989         989
        1010         901         989         989
        1012        1013        1014        1014
        1013         584        1005        1005
        1005         344        1014        1014
        1013        1005        1014        1014
         919         921        1015        1015
         921         815         913         913
         913         912        1015        1015
         921         913        1015        1015
         889        1016        1017        1017
        1016         912        1004        1004
        1004         585        1017        1017
        1016        1004        1017        1017
         919        1018         920         920
        1018         352         357         357
         357         354         920         920
        1018         357         920         920
         839        1019         842         842
        1019         916         930         930
         930         840         842         842
        1019         930         842         842
         698         700         924         924
         700         697         823         823
         823         812         924         924
         700         823         924         924
         686         922        1020        1020
         922         352        1018        1018
        1018         919        1020        1020
         922        1018        1020        1020
        1021        1023        1025        1025
        1023         818        1024        1024
        1024        1022        1025        1025
        1023        1024        1025        1025
         840         931         940         940
         931         829         847         847
         847         750         940         940
         931         847         940         940
         839        1027        1019        1019
        1027        1026        1028        1028
        1028         916        1019        1019
        1027        1028        1019        1019
         706        1029         709         709
        1029         684         893         893
         893         707         709         709
        1029         893         709         709
         684         934         687         687
         934         832         835         835
         835         685         687         687
         934         835         687         687
         938         941        1030        1030
         941         750         751         751
         751         271        1030        1030
         941         751        1030        1030
        1031        1033        1035        1035
        1033        1032        1034        1034
        1034         953        1035        1035
        1033        1034        1035        1035
        1022        1036        1038        1038
        1036         932        1037        1037
        1037         706        1038        1038
        1036        1037        1038        1038
         932         943         933         933
         943         383         937         937
         937         832         933         933
         943         937         933         933
        1039        1040        1041        1041
        1040         271         273         273
         273         270        1041        1041
        1040         273        1041        1041
        1042        1045        1047        1047
        1045        1043        1046        1046
        1046        1044        1047        1047
        1045        1046        1047        1047
         658        1048        1050        1050
        1048         858        1049        1049
        1049         567        1050        1050
        1048        1049        1050        1050
         648        1051        1053        1053
        1051         270        1052        1052
        1052         658        1053        1053
        1051        1052        1053        1053
        1054        1055        1057        1057
        1055         926        1056        1056
        1056         818        1057        1057
        1055        1056        1057        1057
         819        1058         942         942
        1058         360         386         386
         386         383         942         942
        1058         386         942         942
         249         761         252         252
         761         659         675         675
         675         250         252         252
         761         675         252         252
         567        1049         569         569
        1049         858         861         861
         861         568         569         569
        1049         861         569         569
         358         363         821         821
         363         360        1058        1058
        1058         819         821         821
         363        1058         821         821
         875        1059         876         876
        1059         406        1060        1060
        1060         359         876         876
        1059        1060         876         876
        1061        1063        1065        1065
        1063         798        1064        1064
        1064        1062        1065        1065
        1063        1064        1065        1065
         481        1066         483         483
        1066         332         334         334
         334         323         483         483
        1066         334         483         483
        1062        1067        1068        1068
        1067         332        1066        1066
        1066         481        1068        1068
        1067        1066        1068        1068
        1061        1069        1063        1063
        1069         884        1070        1070
        1070         798        1063        1063
        1069        1070        1063        1063
        1071        1074        1076        1076
        1074        1072        1075        1075
        1075        1073        1076        1076
        1074        1075        1076        1076
         712        1077         982         982
        1077         344         793         793
         793         790         982         982
        1077         793         982         982
         696        1007         699         699
        1007         905         908         908
         908         697         699         699
        1007         908         699         699
         605        1078        1006        1006
        1078         978         981         981
         981         905        1006        1006
        1078         981        1006        1006
         889        1017        1079        1079
        1017         585         586         586
         586         584        1079        1079
        1017         586        1079        1079
        1012        1014        1080        1080
        1014         344        1077        1077
        1077         712        1080        1080
        1014        1077        1080        1080
         888        1081        1082        1082
        1081         919        1015        1015
        1015         912        1082        1082
        1081        1015        1082        1082
         888        1082         891         891
        1082         912        1016        1016
        1016         889         891         891
        1082        1016         891         891
         606         899        1084        1084
         899         698        1083        1083
        1083        1026        1084        1084
         899        1083        1084        1084
        1085        1087        1089        1089
        1087         481        1088        1088
        1088        1086        1089        1089
        1087        1088        1089        1089
        1086        1090        1092        1092
        1090         909        1091        1091
        1091         605        1092        1092
        1090        1091        1092        1092
         605        1091        1078        1078
        1091         909        1011        1011
        1011         978        1078        1078
        1091        1011        1078        1078
        1032        1093        1094        1094
        1093         839         841         841
         841         838        1094        1094
        1093         841        1094        1094
        1026        1083        1028        1028
        1083         698         923         923
         923         916        1028        1028
        1083         923        1028        1028
        1095        1096        1098        1098
        1096         686        1097        1097
        1097         888        1098        1098
        1096        1097        1098        1098
        1099        1101        1103        1103
        1101        1100        1102        1102
        1102         705        1103        1103
        1101        1102        1103        1103
         838         843        1104        1104
         843         840         939         939
         939         938        1104        1104
         843         939        1104        1104
        1032        1106        1093        1093
        1106        1105        1107        1107
        1107         839        1093        1093
        1106        1107        1093        1093
        1100        1108        1102        1102
        1108         706         708         708
         708         705        1102        1102
        1108         708        1102        1102
         706        1037        1029        1029
        1037         932         935         935
         935         684        1029        1029
        1037         935        1029        1029
         888        1097        1081        1081
        1097         686        1020        1020
        1020         919        1081        1081
        1097        1020        1081        1081
         887        1109        1110        1110
        1109         584        1013        1013
        1013        1012        1110        1110
        1109        1013        1110        1110
         863        1111        1113        1113
        1111         938        1112        1112
        1112        1039        1113        1113
        1111        1112        1113        1113
        1114        1117        1119        1119
        1117        1115        1118        1118
        1118        1116        1119        1119
        1117        1118        1119        1119
         864        1120        1122        1122
        1120        1039        1121        1121
        1121         648        1122        1122
        1120        1121        1122        1122
        1039        1112        1040        1040
        1112         938        1030        1030
        1030         271        1040        1040
        1112        1030        1040        1040
        1123        1124        1126        1126
        1124         925        1125        1125
        1125        1054        1126        1126
        1124        1125        1126        1126
        1022        1127        1036        1036
        1127         819         944         944
         944         932        1036        1036
        1127         944        1036        1036
        1128        1131        1133        1133
        1131        1129        1132        1132
        1132        1130        1133        1133
        1131        1132        1133        1133
         658        1052        1048        1048
        1052         270         951         951
         951         858        1048        1048
        1052         951        1048        1048
         818         822        1024        1024
         822         819        1127        1127
        1127        1022        1024        1024
         822        1127        1024        1024
         926         970        1134        1134
         970         875         877         877
         877         358        1134        1134
         970         877        1134        1134
        1135        1138        1140        1140
        1138        1136        1139        1139
        1139        1137        1140        1140
        1138        1139        1140        1140
         406         430        1060        1060
         430         422         764         764
         764         359        1060        1060
         430         764        1060        1060
         776         779        1141        1141
         779         254         259         259
         259         256        1141        1141
         779         259        1141        1141
         771         773         881         881
         773         759         762         762
         762         249         881         881
         773         762         881         881
         884         886        1070        1070
         886         597         799         799
         799         798        1070        1070
         886         799        1070        1070
        1142        1145        1147        1147
        1145        1143        1146        1146
        1146        1144        1147        1147
        1145        1146        1147        1147
        1062        1064        1067        1067
        1064         798         997         997
         997         332        1067        1067
        1064         997        1067        1067
        1148        1150        1152        1152
        1150         998        1151        1151
        1151        1149        1152        1152
        1150        1151        1152        1152
        1086        1088        1090        1090
        1088         481         910         910
         910         909        1090        1090
        1088         910        1090        1090
        1153        1154        1155        1155
        1154         884        1069        1069
        1069        1061        1155        1155
        1154        1069        1155        1155
         887         892        1109        1109
         892         889        1079        1079
        1079         584        1109        1109
         892        1079        1109        1109
         984        1157        1159        1159
        1157        1156        1158        1158
        1158        1012        1159        1159
        1157        1158        1159        1159
         606         608         898         898
         608         605        1008        1008
        1008         696         898         898
         608        1008         898         898
         991        1160        1162        1162
        1160        1062        1161        1161
        1161        1085        1162        1162
        1160        1161        1162        1162
        1163        1164        1166        1166
        1164        1026        1165        1165
        1165        1105        1166        1166
        1164        1165        1166        1166
        1167        1168        1169        1169
        1168         604         609         609
         609         606        1169        1169
        1168         609        1169        1169
         984        1159        1170        1170
        1159        1012        1080        1080
        1080         712        1170        1170
        1159        1080        1170        1170
        1171        1172        1174        1174
        1172         707        1173        1173
        1173        1095        1174        1174
        1172        1173        1174        1174
        1175        1177        1179        1179
        1177        1105        1178        1178
        1178        1176        1179        1179
        1177        1178        1179        1179
        1105        1165        1107        1107
        1165        1026        1027        1027
        1027         839        1107        1107
        1165        1027        1107        1107
        1095        1173        1096        1096
        1173         707         894         894
         894         686        1096        1096
        1173         894        1096        1096
        1180        1183        1185        1185
        1183        1181        1184        1184
        1184        1182        1185        1185
        1183        1184        1185        1185
         999        1186        1187        1187
        1186         888         890         890
         890         887        1187        1187
        1186         890        1187        1187
        1000        1188        1190        1190
        1188         887        1189        1189
        1189        1156        1190        1190
        1188        1189        1190        1190
         953        1191        1193        1193
        1191         838        1192        1192
        1192         863        1193        1193
        1191        1192        1193        1193
        1194        1196        1198        1198
        1196        1195        1197        1197
        1197        1176        1198        1198
        1196        1197        1198        1198
        1181        1199        1201        1201
        1199        1021        1200        1200
        1200        1100        1201        1201
        1199        1200        1201        1201
        1100        1202        1108        1108
        1202        1022        1038        1038
        1038         706        1108        1108
        1202        1038        1108        1108
         638        1203        1205        1205
        1203         864        1204        1204
        1204         647        1205        1205
        1203        1204        1205        1205
         863        1192        1111        1111
        1192         838        1104        1104
        1104         938        1111        1111
        1192        1104        1111        1111
        1206        1208        1210        1210
        1208         647        1209        1209
        1209        1207        1210        1210
        1208        1209        1210        1210
         648        1121        1051        1051
        1121        1039        1041        1041
        1041         270        1051        1051
        1121        1041        1051        1051
        1021        1025        1200        1200
        1025        1022        1202        1202
        1202        1100        1200        1200
        1025        1202        1200        1200
        1211        1214        1216        1216
        1214        1212        1215        1215
        1215        1213        1216        1216
        1214        1215        1216        1216
        1130        1219        1221        1221
        1219        1217        1220        1220
        1220        1218        1221        1221
        1219        1220        1221        1221
         659         661         673         673
         661         658        1050        1050
        1050         567         673         673
         661        1050         673         673
         926        1134        1056        1056
        1134         358         820         820
         820         818        1056        1056
        1134         820        1056        1056
         851        1222         969         969
        1222         407        1223        1223
        1223         875         969         969
        1222        1223         969         969
         676        1225        1227        1227
        1225        1224        1226        1226
        1226         256        1227        1227
        1225        1226        1227        1227
        1228        1231        1233        1233
        1231        1229        1232        1232
        1232        1230        1233        1233
        1231        1232        1233        1233
         426         429        1236        1236
         429         405        1235        1235
        1235        1234        1236        1236
         429        1235        1236        1236
         420        1237         423         423
        1237         433         977         977
         977         421         423         423
        1237         977         423         423
        1238        1240        1242        1242
        1240         983        1241        1241
        1241        1239        1242        1242
        1240        1241        1242        1242
         985        1243        1244        1244
        1243         711         885         885
         885         884        1244        1244
        1243         885        1244        1244
        1085        1161        1087        1087
        1161        1062        1068        1068
        1068         481        1087        1087
        1161        1068        1087        1087
         991        1245        1246        1246
        1245        1153        1155        1155
        1155        1061        1246        1246
        1245        1155        1246        1246
         604        1247         607         607
        1247        1086        1092        1092
        1092         605         607         607
        1247        1092         607         607
         992        1248        1249        1249
        1248        1086        1247        1247
        1247         604        1249        1249
        1248        1247        1249        1249
        1167        1169        1251        1251
        1169         606        1250        1250
        1250        1163        1251        1251
        1169        1250        1251        1251
         992        1252        1248        1248
        1252        1085        1089        1089
        1089        1086        1248        1248
        1252        1089        1248        1248
        1000        1002        1188        1188
        1002         999        1187        1187
        1187         887        1188        1188
        1002        1187        1188        1188
        1156        1189        1158        1158
        1189         887        1110        1110
        1110        1012        1158        1158
        1189        1110        1158        1158
        1171        1174        1254        1254
        1174        1095        1253        1253
        1253         999        1254        1254
        1174        1253        1254        1254
         999        1253        1186        1186
        1253        1095        1098        1098
        1098         888        1186        1186
        1253        1098        1186        1186
        1167        1255        1168        1168
        1255         992        1249        1249
        1249         604        1168        1168
        1255        1249        1168        1168
        1163        1250        1164        1164
        1250         606        1084        1084
        1084        1026        1164        1164
        1250        1084        1164        1164
        1256        1257        1259        1259
        1257        1163        1258        1258
        1258        1175        1259        1259
        1257        1258        1259        1259
        1176        1178        1260        1260
        1178        1105        1106        1106
        1106        1032        1260        1260
        1178        1106        1260        1260
         998        1261        1001        1001
        1261        1171        1254        1254
        1254         999        1001        1001
        1261        1254        1001        1001
        1171        1262        1172        1172
        1262         705         710         710
         710         707        1172        1172
        1262         710        1172        1172
        1263        1264        1265        1265
        1264         705        1262        1262
        1262        1171        1265        1265
        1264        1262        1265        1265
        1266        1269        1271        1271
        1269        1267        1270        1270
        1270        1268        1271        1271
        1269        1270        1271        1271
         637        1272         640         640
        1272         862        1273        1273
        1273         638         640         640
        1272        1273         640         640
         953        1034        1191        1191
        1034        1032        1094        1094
        1094         838        1191        1191
        1034        1094        1191        1191
         636         641        1275        1275
         641         638        1274        1274
        1274        1206        1275        1275
         641        1274        1275        1275
         864         866        1120        1120
         866         863        1113        1113
        1113        1039        1120        1120
         866        1113        1120        1120
        1207        1276        1278        1278
        1276         649        1277        1277
        1277         759        1278        1278
        1276        1277        1278        1278
         649         651         660         660
         651         648        1053        1053
        1053         658         660         660
         651        1053         660         660
        1181        1201        1279        1279
        1201        1100        1101        1101
        1101        1099        1279        1279
        1201        1101        1279        1279
        1280        1282        1284        1284
        1282        1281        1283        1283
        1283        1213        1284        1284
        1282        1283        1284        1284
        1054        1057        1285        1285
        1057         818        1023        1023
        1023        1021        1285        1285
        1057        1023        1285        1285
        1286        1287        1288        1288
        1287         925        1124        1124
        1124        1123        1288        1288
        1287        1124        1288        1288
         850        1289         853         853
        1289         407        1222        1222
        1222         851         853         853
        1289        1222         853         853
         407         409        1223        1223
         409         406        1059        1059
        1059         875        1223        1223
         409        1059        1223        1223
         248         253        1290        1290
         253         250         777         777
         777         776        1290        1290
         253         777        1290        1290
        1291        1294        1296        1296
        1294        1292        1295        1295
        1295        1293        1296        1296
        1294        1295        1296        1296
         958        1297         960         960
        1297         780        1298        1298
        1298         850         960         960
        1297        1298         960         960
         405         428         408         408
         428         420         431         431
         431         406         408         408
         428         431         408         408
         984        1170        1299        1299
        1170         712         713         713
         713         711        1299        1299
        1170         713        1299        1299
         984        1299         987         987
        1299         711        1243        1243
        1243         985         987         987
        1299        1243         987         987
        1300        1301        1303        1303
        1301        1167        1302        1302
        1302        1256        1303        1303
        1301        1302        1303        1303
         991        1162         994         994
        1162        1085        1252        1252
        1252         992         994         994
        1162        1252         994         994
        1304        1305        1306        1306
        1305        1153        1245        1245
        1245         991        1306        1306
        1305        1245        1306        1306
        1153        1307        1154        1154
        1307         985        1244        1244
        1244         884        1154        1154
        1307        1244        1154        1154
         991        1246        1160        1160
        1246        1061        1065        1065
        1065        1062        1160        1160
        1246        1065        1160        1160
         990         995        1308        1308
         995         992        1255        1255
        1255        1167        1308        1308
         995        1255        1308        1308
        1175        1258        1177        1177
        1258        1163        1166        1166
        1166        1105        1177        1177
        1258        1166        1177        1177
        1309        1312        1314        1314
        1312        1310        1313        1313
        1313        1311        1314        1314
        1312        1313        1314        1314
         983         988        1241        1241
         988         985        1315        1315
        1315        1239        1241        1241
         988        1315        1241        1241
        1239        1315        1316        1316
        1315         985        1307        1307
        1307        1153        1316        1316
        1315        1307        1316        1316
        1195        1317        1197        1197
        1317        1175        1179        1179
        1179        1176        1197        1197
        1317        1179        1197        1197
        1318        1320        1322        1322
        1320        1319        1321        1321
        1321        1309        1322        1322
        1320        1321        1322        1322
        1323        1324        1325        1325
        1324        1238        1242        1242
        1242        1239        1325        1325
        1324        1242        1325        1325
        1263        1265        1326        1326
        1265        1171        1261        1261
        1261         998        1326        1326
        1265        1261        1326        1326
        1327        1328        1330        1330
        1328         952        1329        1329
        1329         637        1330        1330
        1328        1329        1330        1330
        1031        1331        1033        1033
        1331        1176        1260        1260
        1260        1032        1033        1033
        1331        1260        1033        1033
        1332        1334        1336        1336
        1334        1333        1335        1335
        1335         946        1336        1336
        1334        1335        1336        1336
         862         955         865         865
         955         953        1193        1193
        1193         863         865         865
         955        1193         865         865
        1148        1337        1150        1150
        1337        1263        1326        1326
        1326         998        1150        1150
        1337        1326        1150        1150
        1263        1338        1264        1264
        1338        1099        1103        1103
        1103         705        1264        1264
        1338        1103        1264        1264
        1333        1339        1341        1341
        1339        1207        1340        1340
        1340         770        1341        1341
        1339        1340        1341        1341
         647        1204         650         650
        1204         864        1122        1122
        1122         648         650         650
        1204        1122         650         650
        1182        1342        1344        1344
        1342        1099        1343        1343
        1343        1267        1344        1344
        1342        1343        1344        1344
        1345        1346        1347        1347
        1346        1054        1285        1285
        1285        1021        1347        1347
        1346        1285        1347        1347
        1348        1351        1353        1353
        1351        1349        1352        1352
        1352        1350        1353        1353
        1351        1352        1353        1353
         759        1277         760         760
        1277         649         662         662
         662         659         760         760
        1277         662         760         760
        1345        1347        1354        1354
        1347        1021        1199        1199
        1199        1181        1354        1354
        1347        1199        1354        1354
         371         373        1356        1356
         373         364        1355        1355
        1355        1280        1356        1356
         373        1355        1356        1356
         244        1358        1360        1360
        1358        1357        1359        1359
        1359         248        1360        1360
        1358        1359        1360        1360
        1361        1362        1364        1364
        1362        1230        1363        1363
        1363        1292        1364        1364
        1362        1363        1364        1364
         925         929        1125        1125
         929         926        1055        1055
        1055        1054        1125        1125
         929        1055        1125        1125
        1365        1368        1370        1370
        1368        1366        1369        1369
        1369        1367        1370        1370
        1368        1369        1370        1370
        1371        1372        1373        1373
        1372          14         130         130
         130         127        1373        1373
        1372         130        1373        1373
        1135        1376        1378        1378
        1376        1374        1377        1377
        1377        1375        1378        1378
        1376        1377        1378        1378
        1304        1306        1379        1379
        1306         991         993         993
         993         990        1379        1379
        1306         993        1379        1379
        1323        1381        1383        1383
        1381        1304        1382        1382
        1382        1380        1383        1383
        1381        1382        1383        1383
        1238        1384        1240        1240
        1384        1156        1385        1385
        1385         983        1240        1240
        1384        1385        1240        1240
         983        1385         986         986
        1385        1156        1157        1157
        1157         984         986         986
        1385        1157         986         986
        1256        1302        1257        1257
        1302        1167        1251        1251
        1251        1163        1257        1257
        1302        1251        1257        1257
        1386        1387        1389        1389
        1387        1149        1388        1388
        1388        1323        1389        1389
        1387        1388        1389        1389
        1380        1382        1390        1390
        1382        1304        1379        1379
        1379         990        1390        1390
        1382        1379        1390        1390
        1304        1391        1305        1305
        1391        1239        1316        1316
        1316        1153        1305        1305
        1391        1316        1305        1305
        1149        1392        1394        1394
        1392        1000        1393        1393
        1393        1238        1394        1394
        1392        1393        1394        1394
        1238        1393        1384        1384
        1393        1000        1190        1190
        1190        1156        1384        1384
        1393        1190        1384        1384
        1311        1395        1396        1396
        1395        1175        1317        1317
        1317        1195        1396        1396
        1395        1317        1396        1396
        1310        1397        1313        1313
        1397        1300        1398        1398
        1398        1311        1313        1313
        1397        1398        1313        1313
        1148        1399        1337        1337
        1399        1267        1400        1400
        1400        1263        1337        1337
        1399        1400        1337        1337
        1149        1151        1392        1392
        1151         998        1003        1003
        1003        1000        1392        1392
        1151        1003        1392        1392
        1194        1198        1401        1401
        1198        1176        1331        1331
        1331        1031        1401        1401
        1198        1331        1401        1401
        1402        1404        1406        1406
        1404        1194        1405        1405
        1405        1403        1406        1406
        1404        1405        1406        1406
        1407        1408        1409        1409
        1408        1266        1271        1271
        1271        1268        1409        1409
        1408        1271        1409        1409
        1267        1343        1400        1400
        1343        1099        1338        1338
        1338        1263        1400        1400
        1343        1338        1400        1400
        1410        1411        1412        1412
        1411        1323        1383        1383
        1383        1380        1412        1412
        1411        1383        1412        1412
        1268        1413        1415        1415
        1413        1148        1414        1414
        1414        1386        1415        1415
        1413        1414        1415        1415
        1403        1416        1418        1418
        1416        1031        1417        1417
        1417         952        1418        1418
        1416        1417        1418        1418
        1419        1421        1423        1423
        1421        1114        1422        1422
        1422        1420        1423        1423
        1421        1422        1423        1423
        1424        1426        1428        1428
        1426        1327        1427        1427
        1427        1425        1428        1428
        1426        1427        1428        1428
         952        1417         954         954
        1417        1031        1035        1035
        1035         953         954         954
        1417        1035         954         954
        1429        1432        1434        1434
        1432        1430        1433        1433
        1433        1431        1434        1434
        1432        1433        1434        1434
         638        1273        1203        1203
        1273         862         867         867
         867         864        1203        1203
        1273         867        1203        1203
         946        1335         948         948
        1335        1333        1341        1341
        1341         770         948         948
        1335        1341         948         948
        1207        1209        1276        1276
        1209         647         652         652
         652         649        1276        1276
        1209         652        1276        1276
        1143        1435        1437        1437
        1435        1072        1436        1436
        1436        1266        1437        1437
        1435        1436        1437        1437
        1182        1184        1342        1342
        1184        1181        1279        1279
        1279        1099        1342        1342
        1184        1279        1342        1342
        1180        1185        1439        1439
        1185        1182        1438        1438
        1438        1072        1439        1439
        1185        1438        1439        1439
        1440        1441        1443        1443
        1441        1123        1442        1442
        1442        1345        1443        1443
        1441        1442        1443        1443
         879         882        1444        1444
         882         249         251         251
         251         248        1444        1444
         882         251        1444        1444
        1445        1446        1447        1447
        1446         963         968         968
         968         965        1447        1447
        1446         968        1447        1447
        1123        1126        1442        1442
        1126        1054        1346        1346
        1346        1345        1442        1442
        1126        1346        1442        1442
        1448        1450        1452        1452
        1450        1449        1451        1451
        1451          38        1452        1452
        1450        1451        1452        1452
        1300        1453        1301        1301
        1453         990        1308        1308
        1308        1167        1301        1301
        1453        1308        1301        1301
        1300        1454        1453        1453
        1454        1380        1390        1390
        1390         990        1453        1453
        1454        1390        1453        1453
        1323        1388        1324        1324
        1388        1149        1394        1394
        1394        1238        1324        1324
        1388        1394        1324        1324
        1323        1325        1381        1381
        1325        1239        1391        1391
        1391        1304        1381        1381
        1325        1391        1381        1381
        1311        1455        1395        1395
        1455        1256        1259        1259
        1259        1175        1395        1395
        1455        1259        1395        1395
        1311        1398        1455        1455
        1398        1300        1303        1303
        1303        1256        1455        1455
        1398        1303        1455        1455
        1309        1456        1458        1458
        1456        1195        1457        1457
        1457        1116        1458        1458
        1456        1457        1458        1458
        1310        1459        1397        1397
        1459        1380        1454        1454
        1454        1300        1397        1397
        1459        1454        1397        1397
        1460        1461        1463        1463
        1461        1386        1462        1462
        1462        1410        1463        1463
        1461        1462        1463        1463
        1386        1414        1387        1387
        1414        1148        1152        1152
        1152        1149        1387        1387
        1414        1152        1387        1387
        1464        1467        1469        1469
        1467        1465        1468        1468
        1468        1466        1469        1469
        1467        1468        1469        1469
        1116        1457        1470        1470
        1457        1195        1196        1196
        1196        1194        1470        1470
        1457        1196        1470        1470
        1471        1472        1474        1474
        1472        1403        1473        1473
        1473        1327        1474        1474
        1472        1473        1474        1474
        1403        1405        1416        1416
        1405        1194        1401        1401
        1401        1031        1416        1416
        1405        1401        1416        1416
        1475        1476        1477        1477
        1476        1424        1428        1428
        1428        1425        1477        1477
        1476        1428        1477        1477
        1206        1274        1208        1208
        1274         638        1205        1205
        1205         647        1208        1208
        1274        1205        1208        1208
        1425        1478        1479        1479
        1478         637         639         639
         639         636        1479        1479
        1478         639        1479        1479
         637        1329        1272        1272
        1329         952         956         956
         956         862        1272        1272
        1329         956        1272        1272
        1480        1483        1485        1485
        1483        1481        1484        1484
        1484        1482        1485        1485
        1483        1484        1485        1485
        1268        1270        1413        1413
        1270        1267        1399        1399
        1399        1148        1413        1413
        1270        1399        1413        1413
        1486        1489        1491        1491
        1489        1487        1490        1490
        1490        1488        1491        1491
        1489        1490        1491        1491
        1266        1492        1269        1269
        1492        1182        1344        1344
        1344        1267        1269        1269
        1492        1344        1269        1269
        1332        1494        1334        1334
        1494        1493        1495        1495
        1495        1333        1334        1334
        1494        1495        1334        1334
         770        1340         772         772
        1340        1207        1278        1278
        1278         759         772         772
        1340        1278         772         772
        1357        1496        1359        1359
        1496         879        1444        1444
        1444         248        1359        1359
        1496        1444        1359        1359
        1497        1498        1500        1500
        1498         945        1499        1499
        1499         771        1500        1500
        1498        1499        1500        1500
        1319        1501        1503        1503
        1501        1410        1502        1502
        1502        1310        1503        1503
        1501        1502        1503        1503
        1309        1314        1456        1456
        1314        1311        1396        1396
        1396        1195        1456        1456
        1314        1396        1456        1456
        1410        1462        1411        1411
        1462        1386        1389        1389
        1389        1323        1411        1411
        1462        1389        1411        1411
        1410        1412        1502        1502
        1412        1380        1459        1459
        1459        1310        1502        1502
        1412        1459        1502        1502
        1115        1504        1118        1118
        1504        1309        1458        1458
        1458        1116        1118        1118
        1504        1458        1118        1118
        1319        1505        1501        1501
        1505        1460        1463        1463
        1463        1410        1501        1501
        1505        1463        1501        1501
        1506        1507        1509        1509
        1507        1471        1508        1508
        1508        1424        1509        1509
        1507        1508        1509        1509
        1402        1510        1404        1404
        1510        1116        1470        1470
        1470        1194        1404        1404
        1510        1470        1404        1404
        1511        1514        1516        1516
        1514        1512        1515        1515
        1515        1513        1516        1516
        1514        1515        1516        1516
        1333        1517        1339        1339
        1517        1206        1210        1210
        1210        1207        1339        1339
        1517        1210        1339        1339
        1493        1518        1495        1495
        1518        1206        1517        1517
        1517        1333        1495        1495
        1518        1517        1495        1495
        1425        1427        1478        1478
        1427        1327        1330        1330
        1330         637        1478        1478
        1427        1330        1478        1478
        1519        1520        1521        1521
        1520        1424        1476        1476
        1476        1475        1521        1521
        1520        1476        1521        1521
        1327        1473        1328        1328
        1473        1403        1418        1418
        1418         952        1328        1328
        1473        1418        1328        1328
        1522        1523        1525        1525
        1523        1073        1524        1524
        1524        1142        1525        1525
        1523        1524        1525        1525
        1072        1438        1436        1436
        1438        1182        1492        1492
        1492        1266        1436        1436
        1438        1492        1436        1436
        1526        1527        1529        1529
        1527        1407        1528        1528
        1528        1460        1529        1529
        1527        1528        1529        1529
        1460        1530        1461        1461
        1530        1268        1415        1415
        1415        1386        1461        1461
        1530        1415        1461        1461
        1114        1119        1531        1531
        1119        1116        1510        1510
        1510        1402        1531        1531
        1119        1510        1531        1531
        1466        1532        1534        1534
        1532        1526        1533        1533
        1533        1318        1534        1534
        1532        1533        1534        1534
        1535        1537        1539        1539
        1537        1407        1538        1538
        1538        1536        1539        1539
        1537        1538        1539        1539
        1407        1409        1528        1528
        1409        1268        1530        1530
        1530        1460        1528        1528
        1409        1530        1528        1528
        1440        1540        1542        1542
        1540        1180        1541        1541
        1541        1071        1542        1542
        1540        1541        1542        1542
        1180        1543        1183        1183
        1543        1345        1354        1354
        1354        1181        1183        1183
        1543        1354        1183        1183
        1420        1544        1546        1546
        1544        1402        1545        1545
        1545        1471        1546        1546
        1544        1545        1546        1546
        1547        1549        1551        1551
        1549        1464        1550        1550
        1550        1548        1551        1551
        1549        1550        1551        1551
        1552        1555        1557        1557
        1555        1553        1556        1556
        1556        1554        1557        1557
        1555        1556        1557        1557
        1471        1545        1472        1472
        1545        1402        1406        1406
        1406        1403        1472        1472
        1545        1406        1472        1472
        1493        1558        1518        1518
        1558         636        1275        1275
        1275        1206        1518        1518
        1558        1275        1518        1518
        1475        1477        1560        1560
        1477        1425        1559        1559
        1559        1493        1560        1560
        1477        1559        1560        1560
        1319        1503        1321        1321
        1503        1310        1312        1312
        1312        1309        1321        1321
        1503        1312        1321        1321
        1318        1533        1320        1320
        1533        1526        1561        1561
        1561        1319        1320        1320
        1533        1561        1320        1320
        1535        1562        1537        1537
        1562        1266        1408        1408
        1408        1407        1537        1537
        1562        1408        1537        1537
        1563        1566        1568        1568
        1566        1564        1567        1567
        1567        1565        1568        1568
        1566        1567        1568        1568
         945         949        1499        1499
         949         770         774         774
         774         771        1499        1499
         949         774        1499        1499
        1130        1570        1572        1572
        1570        1569        1571        1571
        1571        1512        1572        1572
        1570        1571        1572        1572
        1526        1529        1561        1561
        1529        1460        1505        1505
        1505        1319        1561        1561
        1529        1505        1561        1561
        1466        1534        1574        1574
        1534        1318        1573        1573
        1573        1115        1574        1574
        1534        1573        1574        1574
        1575        1578        1580        1580
        1578        1576        1579        1579
        1579        1577        1580        1580
        1578        1579        1580        1580
        1548        1581        1582        1582
        1581        1115        1117        1117
        1117        1114        1582        1582
        1581        1117        1582        1582
        1583        1584        1586        1586
        1584        1420        1585        1585
        1585        1506        1586        1586
        1584        1585        1586        1586
        1420        1422        1544        1544
        1422        1114        1531        1531
        1531        1402        1544        1544
        1422        1531        1544        1544
        1511        1588        1590        1590
        1588        1587        1589        1589
        1589          94        1590        1590
        1588        1589        1590        1590
        1493        1559        1558        1558
        1559        1425        1479        1479
        1479         636        1558        1558
        1559        1479        1558        1558
        1318        1322        1573        1573
        1322        1309        1504        1504
        1504        1115        1573        1573
        1322        1504        1573        1573
        1466        1591        1532        1532
        1591        1536        1592        1592
        1592        1526        1532        1532
        1591        1592        1532        1532
        1465        1593        1594        1594
        1593        1535        1539        1539
        1539        1536        1594        1594
        1593        1539        1594        1594
        1536        1538        1592        1592
        1538        1407        1527        1527
        1527        1526        1592        1592
        1538        1527        1592        1592
        1595        1597        1599        1599
        1597        1596        1598        1598
        1598        1576        1599        1599
        1597        1598        1599        1599
        1419        1600        1421        1421
        1600        1548        1582        1582
        1582        1114        1421        1421
        1600        1582        1421        1421
        1466        1574        1601        1601
        1574        1115        1581        1581
        1581        1548        1601        1601
        1574        1581        1601        1601
        1464        1469        1550        1550
        1469        1466        1601        1601
        1601        1548        1550        1550
        1469        1601        1550        1550
        1144        1602        1603        1603
        1602        1535        1593        1593
        1593        1465        1603        1603
        1602        1593        1603        1603
        1535        1604        1562        1562
        1604        1143        1437        1437
        1437        1266        1562        1562
        1604        1437        1562        1562
        1465        1594        1468        1468
        1594        1536        1591        1591
        1591        1466        1468        1468
        1594        1591        1468        1468
        1605        1607        1609        1609
        1607        1606        1608        1608
        1608        1487        1609        1609
        1607        1608        1609        1609
        1497        1500        1610        1610
        1500         771         880         880
         880         879        1610        1610
        1500         880        1610        1610
        1611        1614        1616        1616
        1614        1612        1615        1615
        1615        1613        1616        1616
        1614        1615        1616        1616
        1613        1617        1618        1618
        1617         879        1496        1496
        1496        1357        1618        1618
        1617        1496        1618        1618
        1293        1619        1620        1620
        1619         964         966         966
         966         963        1620        1620
        1619         966        1620        1620
        1554        1623        1625        1625
        1623        1621        1624        1624
        1624        1622        1625        1625
        1623        1624        1625        1625
        1424        1508        1426        1426
        1508        1471        1474        1474
        1474        1327        1426        1426
        1508        1474        1426        1426
        1626        1629        1631        1631
        1629        1627        1630        1630
        1630        1628        1631        1631
        1629        1630        1631        1631
        1073        1075        1632        1632
        1075        1072        1435        1435
        1435        1143        1632        1632
        1075        1435        1632        1632
         244        1360        1633        1633
        1360         248        1290        1290
        1290         776        1633        1633
        1360        1290        1633        1633
        1634        1636        1638        1638
        1636           1        1637        1637
        1637        1635        1638        1638
        1636        1637        1638        1638
        1639        1642        1644        1644
        1642        1640        1643        1643
        1643        1641        1644        1644
        1642        1643        1644        1644
        1071        1541        1074        1074
        1541        1180        1439        1439
        1439        1072        1074        1074
        1541        1439        1074        1074
        1440        1443        1540        1540
        1443        1345        1543        1543
        1543        1180        1540        1540
        1443        1543        1540        1540
        1645        1647        1649        1649
        1647        1646        1648        1648
        1648          38        1649        1649
        1647        1648        1649        1649
        1224        1650        1651        1651
        1650         244        1633        1633
        1633         776        1651        1651
        1650        1633        1651        1651
           2        1652        1654        1654
        1652         155        1653        1653
        1653         137        1654        1654
        1652        1653        1654        1654
        1547        1551        1655        1655
        1551        1548        1600        1600
        1600        1419        1655        1655
        1551        1600        1655        1655
        1656        1658        1660        1660
        1658        1657        1659        1659
        1659        1465        1660        1660
        1658        1659        1660        1660
        1661        1664        1666        1666
        1664        1662        1665        1665
        1665        1663        1666        1666
        1664        1665        1666        1666
         852         854        1667        1667
         854         851         927         927
         927         925        1667        1667
         854         927        1667        1667
        1137        1669        1671        1671
        1669        1668        1670        1670
        1670         972        1671        1671
        1669        1670        1671        1671
        1234        1235        1672        1672
        1235         405         781         781
         781         780        1672        1672
        1235         781        1672        1672
        1663        1674        1676        1676
        1674        1673        1675        1675
        1675          20        1676        1676
        1674        1675        1676        1676
         850        1298        1289        1289
        1298         780         782         782
         782         407        1289        1289
        1298         782        1289        1289
        1554        1625        1678        1678
        1625        1622        1677        1677
        1677        1595        1678        1678
        1625        1677        1678        1678
        1506        1585        1507        1507
        1585        1420        1546        1546
        1546        1471        1507        1507
        1585        1546        1507        1507
        1679        1680        1682        1682
        1680        1419        1681        1681
        1681        1583        1682        1682
        1680        1681        1682        1682
        1043        1683        1046        1046
        1683        1576        1684        1684
        1684        1044        1046        1046
        1683        1684        1046        1046
        1685        1686        1687        1687
        1686        1042        1047        1047
        1047        1044        1687        1687
        1686        1047        1687        1687
        1583        1681        1584        1584
        1681        1419        1423        1423
        1423        1420        1584        1584
        1681        1423        1584        1584
        1224        1651        1226        1226
        1651         776        1141        1141
        1141         256        1226        1226
        1651        1141        1226        1226
         153        1688        1689        1689
        1688           2         145         145
         145         143        1689        1689
        1688         145        1689        1689
        1690        1693        1695        1695
        1693        1691        1694        1694
        1694        1692        1695        1695
        1693        1694        1695        1695
        1626        1631        1697        1697
        1631        1628        1696        1696
        1696        1645        1697        1697
        1631        1696        1697        1697
         451        1699         453         453
        1699        1698        1700        1700
        1700         452         453         453
        1699        1700         453         453
         426         435         427         427
         435         433        1237        1237
        1237         420         427         427
         435        1237         427         427
        1701        1702        1703        1703
        1702        1493        1494        1494
        1494        1332        1703        1703
        1702        1494        1703        1703
        1704        1705        1706        1706
        1705          82          87          87
          87          84        1706        1706
        1705          87        1706        1706
        1563        1708        1566        1566
        1708        1707        1709        1709
        1709        1564        1566        1566
        1708        1709        1566        1566
        1144        1146        1602        1602
        1146        1143        1604        1604
        1604        1535        1602        1602
        1146        1604        1602        1602
        1348        1711        1713        1713
        1711        1710        1712        1712
        1712         277        1713        1713
        1711        1712        1713        1713
        1714        1716        1718        1718
        1716        1332        1717        1717
        1717        1715        1718        1718
        1716        1717        1718        1718
         972        1719        1721        1721
        1719         456        1720        1720
        1720         445        1721        1721
        1719        1720        1721        1721
         447         449        1723        1723
         449         446        1722        1722
        1722         440        1723        1723
         449        1722        1723        1723
           2        1654           5           5
        1654         137         141         141
         141           3           5           5
        1654         141           5           5
           1           6        1637        1637
           6           3        1724        1724
        1724        1635        1637        1637
           6        1724        1637        1637
         445        1720        1725        1725
        1720         456         461         461
         461         458        1725        1725
        1720         461        1725        1725
         445        1725         448         448
        1725         458        1726        1726
        1726         446         448         448
        1725        1726         448         448
        1634        1638        1729        1729
        1638        1635        1728        1728
        1728        1727        1729        1729
        1638        1728        1729        1729
         142        1730         144         144
        1730         243         245         245
         245         143         144         144
        1730         245         144         144
          94        1589          97          97
        1589        1587        1731        1731
        1731          95          97          97
        1589        1731          97          97
        1732        1734        1736        1736
        1734        1733        1735        1735
        1735          93        1736        1736
        1734        1735        1736        1736
        1732        1738        1740        1740
        1738         317        1739        1739
        1739        1737        1740        1740
        1738        1739        1740        1740
        1741        1742        1743        1743
        1742          83          85          85
          85          82        1743        1743
        1742          85        1743        1743
          20        1675          23          23
        1675        1673        1744        1744
        1744          21          23          23
        1675        1744          23          23
        1745        1747        1749        1749
        1747        1746        1748        1748
        1748          19        1749        1749
        1747        1748        1749        1749
        1745        1751        1753        1753
        1751         414        1752        1752
        1752        1750        1753        1753
        1751        1752        1753        1753
        1754        1755        1756        1756
        1755         126         128         128
         128          14        1756        1756
        1755         128        1756        1756
        1698        1757        1700        1700
        1757         971         975         975
         975         452        1700        1700
        1757         975        1700        1700
         972        1670        1719        1719
        1670        1668        1758        1758
        1758         456        1719        1719
        1670        1758        1719        1719
        1374        1760        1762        1762
        1760        1371        1761        1761
        1761        1759        1762        1762
        1760        1761        1762        1762
        1137        1139        1669        1669
        1139        1136        1763        1763
        1763        1668        1669        1669
        1139        1763        1669        1669
        1576        1598        1579        1579
        1598        1596        1764        1764
        1764        1577        1579        1579
        1598        1764        1579        1579
        1575        1580        1767        1767
        1580        1577        1766        1766
        1766        1765        1767        1767
        1580        1766        1767        1767
        1487        1608        1490        1490
        1608        1606        1768        1768
        1768        1488        1490        1490
        1608        1768        1490        1490
        1486        1491        1771        1771
        1491        1488        1770        1770
        1770        1769        1771        1771
        1491        1770        1771        1771
        1772        1773        1775        1775
        1773        1769        1774        1774
        1774        1627        1775        1775
        1773        1774        1775        1775
        1482        1778        1780        1780
        1778        1776        1779        1779
        1779        1777        1780        1780
        1778        1779        1780        1780
        1605        1781        1782        1782
        1781        1575        1767        1767
        1767        1765        1782        1782
        1781        1767        1782        1782
        1685        1783        1784        1784
        1783        1565        1567        1567
        1567        1564        1784        1784
        1783        1567        1784        1784
        1785        1787        1789        1789
        1787        1704        1788        1788
        1788        1786        1789        1789
        1787        1788        1789        1789
        1595        1677        1597        1597
        1677        1622        1790        1790
        1790        1596        1597        1597
        1677        1790        1597        1597
        1605        1782        1607        1607
        1782        1765        1791        1791
        1791        1606        1607        1607
        1782        1791        1607        1607
        1480        1792        1794        1794
        1792        1522        1793        1793
        1793        1707        1794        1794
        1792        1793        1794        1794
         278        1796        1798        1798
        1796        1445        1797        1797
        1797        1795        1798        1798
        1796        1797        1798        1798
        1217        1799        1220        1220
        1799         297        1800        1800
        1800        1218        1220        1220
        1799        1800        1220        1220
          37          42        1803        1803
          42          39        1802        1802
        1802        1801        1803        1803
          42        1802        1803        1803
        1280        1804        1282        1282
        1804         366        1805        1805
        1805        1281        1282        1282
        1804        1805        1282        1282
        1704        1706        1788        1788
        1706          84        1806        1806
        1806        1786        1788        1788
        1706        1806        1788        1788
        1807        1808        1809        1809
        1808        1704        1787        1787
        1787        1785        1809        1809
        1808        1787        1809        1809
        1371        1373        1761        1761
        1373         127        1810        1810
        1810        1759        1761        1761
        1373        1810        1761        1761
        1811        1812        1814        1814
        1812          15        1813        1813
        1813        1371        1814        1814
        1812        1813        1814        1814
        1815        1818        1820        1820
        1818        1816        1819        1819
        1819        1817        1820        1820
        1818        1819        1820        1820
        1663        1665        1674        1674
        1665        1662        1821        1821
        1821        1673        1674        1674
        1665        1821        1674        1674
        1512        1571        1515        1515
        1571        1569        1822        1822
        1822        1513        1515        1515
        1571        1822        1515        1515
        1511        1516        1588        1588
        1516        1513        1823        1823
        1823        1587        1588        1588
        1516        1823        1588        1588
        1213        1283        1826        1826
        1283        1281        1825        1825
        1825        1824        1826        1826
        1283        1825        1826        1826
        1661        1827        1828        1828
        1827        1213        1826        1826
        1826        1824        1828        1828
        1827        1826        1828        1828
        1129        1829        1831        1831
        1829        1350        1830        1830
        1830        1217        1831        1831
        1829        1830        1831        1831
        1217        1832        1799        1799
        1832         296         300         300
         300         297        1799        1799
        1832         300        1799        1799
        1661        1828        1664        1664
        1828        1824        1833        1833
        1833        1662        1664        1664
        1828        1833        1664        1664
        1834        1837        1839        1839
        1837        1835        1838        1838
        1838        1836        1839        1839
        1837        1838        1839        1839
        1374        1762        1377        1377
        1762        1759        1840        1840
        1840        1375        1377        1377
        1762        1840        1377        1377
        1841        1844        1846        1846
        1844        1842        1845        1845
        1845        1843        1846        1846
        1844        1845        1846        1846
        1847        1850        1852        1852
        1850        1848        1851        1851
        1851        1849        1852        1852
        1850        1851        1852        1852
        1849        1853        1854        1854
        1853         780        1297        1297
        1297         958        1854        1854
        1853        1297        1854        1854
        1785        1789        1856        1856
        1789        1786        1855        1855
        1855        1621        1856        1856
        1789        1855        1856        1856
        1857        1859        1861        1861
        1859        1552        1860        1860
        1860        1858        1861        1861
        1859        1860        1861        1861
        1212        1862        1863        1863
        1862         371        1356        1356
        1356        1280        1863        1863
        1862        1356        1863        1863
        1280        1355        1804        1804
        1355         364         369         369
         369         366        1804        1804
        1355         369        1804        1804
        1554        1864        1623        1623
        1864        1785        1856        1856
        1856        1621        1623        1623
        1864        1856        1623        1623
        1865        1866        1867        1867
        1866        1583        1586        1586
        1586        1506        1867        1867
        1866        1586        1867        1867
        1868        1870        1872        1872
        1870        1869        1871        1871
        1871        1857        1872        1872
        1870        1871        1872        1872
        1552        1873        1875        1875
        1873        1595        1874        1874
        1874        1043        1875        1875
        1873        1874        1875        1875
        1130        1221        1570        1570
        1221        1218        1876        1876
        1876        1569        1570        1570
        1221        1876        1570        1570
        1877        1879        1881        1881
        1879        1715        1880        1880
        1880        1878        1881        1881
        1879        1880        1881        1881
        1882        1883        1885        1885
        1883        1733        1884        1884
        1884          88        1885        1885
        1883        1884        1885        1885
        1886        1889        1891        1891
        1889        1887        1890        1890
        1890        1888        1891        1891
        1889        1890        1891        1891
        1640        1893        1895        1895
        1893        1440        1894        1894
        1894        1892        1895        1895
        1893        1894        1895        1895
          38        1648          41          41
        1648        1646        1896        1896
        1896          39          41          41
        1648        1896          41          41
         293        1898        1900        1900
        1898        1897        1899        1899
        1899         288        1900        1900
        1898        1899        1900        1900
         293        1900         295         295
        1900         288         292         292
         292         283         295         295
        1900         292         295         295
          32        1901        1902        1902
        1901          37        1803        1803
        1803        1801        1902        1902
        1901        1803        1902        1902
        1903        1904        1905        1905
        1904         370         374         374
         374         371        1905        1905
        1904         374        1905        1905
          32        1902        1907        1907
        1902        1801        1906        1906
        1906         377        1907        1907
        1902        1906        1907        1907
          32        1907          35          35
        1907         377         379         379
         379          33          35          35
        1907         379          35          35
        1908        1910        1912        1912
        1910        1727        1911        1911
        1911        1909        1912        1912
        1910        1911        1912        1912
        1228        1913        1231        1231
        1913         142        1914        1914
        1914        1229        1231        1231
        1913        1914        1231        1231
        1915        1917        1919        1919
        1917         945        1918        1918
        1918        1916        1919        1919
        1917        1918        1919        1919
        1445        1447        1797        1797
        1447         965        1920        1920
        1920        1795        1797        1797
        1447        1920        1797        1797
        1892        1922        1924        1924
        1922        1071        1923        1923
        1923        1921        1924        1924
        1922        1923        1924        1924
        1645        1696        1647        1647
        1696        1628        1925        1925
        1925        1646        1647        1647
        1696        1925        1647        1647
        1908        1926        1910        1910
        1926        1634        1729        1729
        1729        1727        1910        1910
        1926        1729        1910        1910
        1293        1927        1928        1928
        1927        1908        1912        1912
        1912        1909        1928        1928
        1927        1912        1928        1928
        1777        1929        1931        1931
        1929        1921        1930        1930
        1930        1522        1931        1931
        1929        1930        1931        1931
        1772        1775        1932        1932
        1775        1627        1629        1629
        1629        1626        1932        1932
        1775        1629        1932        1932
         278        1798        1934        1934
        1798        1795        1933        1933
        1933        1897        1934        1934
        1798        1933        1934        1934
        1935        1938        1940        1940
        1938        1936        1939        1939
        1939        1937        1940        1940
        1938        1939        1940        1940
        1941        1944        1946        1946
        1944        1942        1945        1945
        1945        1943        1946        1946
        1944        1945        1946        1946
        1772        1947        1773        1773
        1947        1486        1771        1771
        1771        1769        1773        1773
        1947        1771        1773        1773
           8        1948         402         402
        1948         441        1949        1949
        1949         401         402         402
        1948        1949         402         402
           9         439        1950        1950
         439         437         976         976
         976         433        1950        1950
         439         976        1950        1950
         676        1227         878         878
        1227         256         680         680
         680         164         878         878
        1227         680         878         878
         153        1951         156         156
        1951         676         679         679
         679         154         156         156
        1951         679         156         156
         432         436        1954        1954
         436         426        1953        1953
        1953        1952        1954        1954
         436        1953        1954        1954
         451        1955        1956        1956
        1955           7          12          12
          12           9        1956        1956
        1955          12        1956        1956
        1286        1957        1287        1287
        1957         852        1667        1667
        1667         925        1287        1287
        1957        1667        1287        1287
        1640        1958        1893        1893
        1958        1123        1441        1441
        1441        1440        1893        1893
        1958        1441        1893        1893
         957         961        1959        1959
         961         850         855         855
         855         852        1959        1959
         961         855        1959        1959
        1811        1814        1960        1960
        1814        1371        1760        1760
        1760        1374        1960        1960
        1814        1760        1960        1960
        1715        1717        1961        1961
        1717        1332        1336        1336
        1336         946        1961        1961
        1717        1336        1961        1961
        1915        1962        1917        1917
        1962         946         947         947
         947         945        1917        1917
        1962         947        1917        1917
         243        1963         246         246
        1963        1357        1358        1358
        1358         244         246         246
        1963        1358         246         246
         142         146        1964        1964
         146           2           4           4
           4           1        1964        1964
         146           4        1964        1964
        1916        1918        1965        1965
        1918         945        1498        1498
        1498        1497        1965        1965
        1918        1498        1965        1965
        1612        1966        1615        1615
        1966        1497        1967        1967
        1967        1613        1615        1615
        1966        1967        1615        1615
        1968        1969        1970        1970
        1969        1464        1549        1549
        1549        1547        1970        1970
        1969        1549        1970        1970
        1042        1971        1973        1973
        1971        1547        1972        1972
        1972        1679        1973        1973
        1971        1972        1973        1973
        1921        1923        1974        1974
        1923        1071        1076        1076
        1076        1073        1974        1974
        1923        1076        1974        1974
        1975        1976        1978        1978
        1976        1481        1977        1977
        1977        1486        1978        1978
        1976        1977        1978        1978
        1979        1980        1982        1982
        1980        1878        1981        1981
        1981        1915        1982        1982
        1980        1981        1982        1982
        1915        1983        1962        1962
        1983        1715        1961        1961
        1961         946        1962        1962
        1983        1961        1962        1962
        1142        1524        1145        1145
        1524        1073        1632        1632
        1632        1143        1145        1145
        1524        1632        1145        1145
        1707        1984        1986        1986
        1984        1144        1985        1985
        1985        1657        1986        1986
        1984        1985        1986        1986
        1987        1989        1991        1991
        1989        1847        1990        1990
        1990        1988        1991        1991
        1989        1990        1991        1991
        1849        1992        1853        1853
        1992        1234        1672        1672
        1672         780        1853        1853
        1992        1672        1853        1853
        1888        1994        1996        1996
        1994        1511        1995        1995
        1995        1993        1996        1996
        1994        1995        1996        1996
        1701        1997        1702        1702
        1997        1475        1560        1560
        1560        1493        1702        1702
        1997        1560        1702        1702
        1998        1999        2000        2000
        1999         852        1957        1957
        1957        1286        2000        2000
        1999        1957        2000        2000
        2001        2003        2005        2005
        2003        1663        2004        2004
        2004        2002        2005        2005
        2003        2004        2005        2005
        1679        1972        1680        1680
        1972        1547        1655        1655
        1655        1419        1680        1680
        1972        1655        1680        1680
        2006        2007        2008        2008
        2007        1583        1866        1866
        1866        1865        2008        2008
        2007        1866        2008        2008
        1519        2009        1520        1520
        2009        1506        1509        1509
        1509        1424        1520        1520
        2009        1509        1520        1520
        1519        2010        2009        2009
        2010        1865        1867        1867
        1867        1506        2009        2009
        2010        1867        2009        2009
        1952        1953        2011        2011
        1953         426        1236        1236
        1236        1234        2011        2011
        1953        1236        2011        2011
        1848        2012        1851        1851
        2012        1234        1992        1992
        1992        1849        1851        1851
        2012        1992        1851        1851
         451        2013        1699        1699
        2013         432        2014        2014
        2014        1698        1699        1699
        2013        2014        1699        1699
         432        2015         434         434
        2015           9        1950        1950
        1950         433         434         434
        2015        1950         434         434
        1657        1985        1659        1659
        1985        1144        1603        1603
        1603        1465        1659        1659
        1985        1603        1659        1659
        1656        1660        2016        2016
        1660        1465        1467        1467
        1467        1464        2016        2016
        1660        1467        2016        2016
         143         247        2017        2017
         247         244        1650        1650
        1650        1224        2017        2017
         247        1650        2017        2017
         153        1689        2018        2018
        1689         143        2017        2017
        2017        1224        2018        2018
        1689        2017        2018        2018
        2019        2020        2021        2021
        2020        1475        1997        1997
        1997        1701        2021        2021
        2020        1997        2021        2021
        2022        2024        2026        2026
        2024        1429        2025        2025
        2025        2023        2026        2026
        2024        2025        2026        2026
        2027        2028        2030        2030
        2028        1645        2029        2029
        2029        1449        2030        2030
        2028        2029        2030        2030
        1892        1894        1922        1922
        1894        1440        1542        1542
        1542        1071        1922        1922
        1894        1542        1922        1922
        2031        2033        2035        2035
        2033        1212        2034        2034
        2034        2032        2035        2035
        2033        2034        2035        2035
        1640        2036        1958        1958
        2036        1286        1288        1288
        1288        1123        1958        1958
        2036        1288        1958        1958
         153        2018        1951        1951
        2018        1224        1225        1225
        1225         676        1951        1951
        2018        1225        1951        1951
         153         158        1688        1688
         158         155        1652        1652
        1652           2        1688        1688
         158        1652        1688        1688
        1656        2016        2037        2037
        2016        1464        1969        1969
        1969        1968        2037        2037
        2016        1969        2037        2037
        1685        1784        2039        2039
        1784        1564        2038        2038
        2038        1656        2039        2039
        1784        2038        2039        2039
        1229        2040        2041        2041
        2040           1        1636        1636
        1636        1634        2041        2041
        2040        1636        2041        2041
        1611        2042        2043        2043
        2042        1228        1233        1233
        1233        1230        2043        2043
        2042        1233        2043        2043
         452         974        2044        2044
         974         972        1721        1721
        1721         445        2044        2044
         974        1721        2044        2044
         452        2044         454         454
        2044         445         450         450
         450         447         454         454
        2044         450         454         454
        1613        1967        1617        1617
        1967        1497        1610        1610
        1610         879        1617        1617
        1967        1610        1617        1617
        1613        1618        2045        2045
        1618        1357        1963        1963
        1963         243        2045        2045
        1618        1963        2045        2045
        1135        1378        1138        1138
        1378        1375        2046        2046
        2046        1136        1138        1138
        1378        2046        1138        1138
        2047        2048        2050        2050
        2048        1137        2049        2049
        2049         971        2050        2050
        2048        2049        2050        2050
        1293        1928        1619        1619
        1928        1909        2051        2051
        2051         964        1619        1619
        1928        2051        1619        1619
        1291        2053        2055        2055
        2053         963        2054        2054
        2054        2052        2055        2055
        2053        2054        2055        2055
         278        1934        2056        2056
        1934        1897        1898        1898
        1898         293        2056        2056
        1934        1898        2056        2056
        1349        2057        2059        2059
        2057         282        2058        2058
        2058         296        2059        2059
        2057        2058        2059        2059
        1044        1684        2060        2060
        1684        1576        1578        1578
        1578        1575        2060        2060
        1684        1578        2060        2060
        1565        2061        2062        2062
        2061        1044        2060        2060
        2060        1575        2062        2062
        2061        2060        2062        2062
        2063        2066        2068        2068
        2066        2064        2067        2067
        2067        2065        2068        2068
        2066        2067        2068        2068
          89          91        2069        2069
          91          82        1705        1705
        1705        1704        2069        2069
          91        1705        2069        2069
        2070        2071        2073        2073
        2071        1858        2072        2072
        2072        1043        2073        2073
        2071        2072        2073        2073
        1043        1874        1683        1683
        1874        1595        1599        1599
        1599        1576        1683        1683
        1874        1599        1683        1683
        1565        2062        2074        2074
        2062        1575        1781        1781
        1781        1605        2074        2074
        2062        1781        2074        2074
        1563        2076        2078        2078
        2076        1605        2077        2077
        2077        2075        2078        2078
        2076        2077        2078        2078
        1732        2079        1734        1734
        2079        1741        2080        2080
        2080        1733        1734        1734
        2079        2080        1734        1734
        1741        2081        1742        1742
        2081        1737        2082        2082
        2082          83        1742        1742
        2081        2082        1742        1742
        1745        2083        1747        1747
        2083        1754        2084        2084
        2084        1746        1747        1747
        2083        2084        1747        1747
        1754        2085        1755        1755
        2085        1750        2086        2086
        2086         126        1755        1755
        2085        2086        1755        1755
        1481        2087        1977        1977
        2087        1487        1489        1489
        1489        1486        1977        1977
        2087        1489        1977        1977
        1975        1978        2088        2088
        1978        1486        1947        1947
        1947        1772        2088        2088
        1978        1947        2088        2088
        2075        2077        2089        2089
        2077        1605        1609        1609
        1609        1487        2089        2089
        2077        1609        2089        2089
        2075        2089        2090        2090
        2089        1487        2087        2087
        2087        1481        2090        2090
        2089        2087        2090        2090
        2091        2092        2094        2094
        2092        1746        2093        2093
        2093          13        2094        2094
        2092        2093        2094        2094
          15          17        1813        1813
          17          14        1372        1372
        1372        1371        1813        1813
          17        1372        1813        1813
        1553        2095        1556        1556
        2095        1785        1864        1864
        1864        1554        1556        1556
        2095        1864        1556        1556
        1857        2097        2099        2099
        2097        2096        2098        2098
        2098        1553        2099        2099
        2097        2098        2099        2099
         370        2100        2102        2102
        2100        1448        2101        2101
        2101          37        2102        2102
        2100        2101        2102        2102
        1212        1863        1215        1215
        1863        1280        1284        1284
        1284        1213        1215        1215
        1863        1284        1215        1215
        2002        2004        2103        2103
        2004        1663        1676        1676
        1676          20        2103        2103
        2004        1676        2103        2103
        1746        2104        2105        2105
        2104        2002        2103        2103
        2103          20        2105        2105
        2104        2103        2105        2105
        1350        2106        1830        1830
        2106         296        1832        1832
        1832        1217        1830        1830
        2106        1832        1830        1830
        1129        1831        1132        1132
        1831        1217        1219        1219
        1219        1130        1132        1132
        1831        1219        1132        1132
        1993        1995        2107        2107
        1995        1511        1590        1590
        1590          94        2107        2107
        1995        1590        2107        2107
        1733        2108        2109        2109
        2108        1993        2107        2107
        2107          94        2109        2109
        2108        2107        2109        2109
        1128        1133        2110        2110
        1133        1130        1572        1572
        1572        1512        2110        2110
        1133        1572        2110        2110
        2111        2112        2114        2114
        2112        1128        2113        2113
        2113        1887        2114        2114
        2112        2113        2114        2114
        1211        1216        2115        2115
        1216        1213        1827        1827
        1827        1661        2115        2115
        1216        1827        2115        2115
        2116        2117        2119        2119
        2117        1836        2118        2118
        2118        1998        2119        2119
        2117        2118        2119        2119
        2001        2120        2121        2121
        2120        1211        2115        2115
        2115        1661        2121        2121
        2120        2115        2121        2121
        2122        2123        2125        2125
        2123        2032        2124        2124
        2124        1211        2125        2125
        2123        2124        2125        2125
        2001        2121        2003        2003
        2121        1661        1666        1666
        1666        1663        2003        2003
        2121        1666        2003        2003
        1367        2127        2129        2129
        2127        2091        2128        2128
        2128        2126        2129        2129
        2127        2128        2129        2129
        1552        1557        1873        1873
        1557        1554        1678        1678
        1678        1595        1873        1873
        1557        1678        1873        1873
        1868        2131        2133        2133
        2131        2006        2132        2132
        2132        2130        2133        2133
        2131        2132        2133        2133
        1888        2134        2135        2135
        2134        1128        2110        2110
        2110        1512        2135        2135
        2134        2110        2135        2135
        1877        2137        2139        2139
        2137        2136        2138        2138
        2138        1714        2139        2139
        2137        2138        2139        2139
        1888        2135        1994        1994
        2135        1512        1514        1514
        1514        1511        1994        1994
        2135        1514        1994        1994
        2140        2141        2143        2143
        2141        1807        2142        2142
        2142        2096        2143        2143
        2141        2142        2143        2143
        1690        2144        2145        2145
        2144        1777        1779        1779
        1779        1776        2145        2145
        2144        1779        2145        2145
        2146        2147        2148        2148
        2147        1772        1932        1932
        1932        1626        2148        2148
        2147        1932        2148        2148
        1979        1982        2149        2149
        1982        1915        1919        1919
        1919        1916        2149        2149
        1982        1919        2149        2149
        2052        2054        2150        2150
        2054         963        1446        1446
        1446        1445        2150        2150
        2054        1446        2150        2150
        1230        2151        2152        2152
        2151        1634        1926        1926
        1926        1908        2152        2152
        2151        1926        2152        2152
        1292        2153        1295        1295
        2153        1908        1927        1927
        1927        1293        1295        1295
        2153        1927        1295        1295
        1641        2154        2156        2156
        2154        1892        2155        2155
        2155        1692        2156        2156
        2154        2155        2156        2156
        1449        2029        1451        1451
        2029        1645        1649        1649
        1649          38        1451        1451
        2029        1649        1451        1451
        2157        2160        2162        2162
        2160        2158        2161        2161
        2161        2159        2162        2162
        2160        2161        2162        2162
        2027        2163        2028        2028
        2163        1626        1697        1697
        1697        1645        2028        2028
        2163        1697        2028        2028
        2164        2165        2167        2167
        2165        1135        2166        2166
        2166        2047        2167        2167
        2165        2166        2167        2167
        2168        2169        2170        2170
        2169        1849        1854        1854
        1854         958        2170        2170
        2169        1854        2170        2170
        1807        2171        1808        1808
        2171          89        2069        2069
        2069        1704        1808        1808
        2171        2069        1808        1808
        1807        1809        2172        2172
        1809        1785        2095        2095
        2095        1553        2172        2172
        1809        2095        2172        2172
        1448        1452        2101        2101
        1452          38          40          40
          40          37        2101        2101
        1452          40        2101        2101
        2173        2174        2176        2176
        2174        1903        2175        2175
        2175        2031        2176        2176
        2174        2175        2176        2176
        2146        2177        2147        2147
        2177        1975        2088        2088
        2088        1772        2147        2147
        2177        2088        2147        2147
        2146        2148        2178        2178
        2148        1626        2163        2163
        2163        2027        2178        2178
        2148        2163        2178        2178
        1733        2109        1735        1735
        2109          94          96          96
          96          93        1735        1735
        2109          96        1735        1735
          88        1884        2179        2179
        1884        1733        2080        2080
        2080        1741        2179        2179
        1884        2080        2179        2179
        1746        2105        1748        1748
        2105          20          22          22
          22          19        1748        1748
        2105          22        1748        1748
          13        2093        2180        2180
        2093        1746        2084        2084
        2084        1754        2180        2180
        2093        2084        2180        2180
         370        2102        2181        2181
        2102          37        1901        1901
        1901          32        2181        2181
        2102        1901        2181        2181
          31        2182          34          34
        2182         370        2181        2181
        2181          32          34          34
        2182        2181          34          34
        1847        2184        1850        1850
        2184        2183        2185        2185
        2185        1848        1850        1850
        2184        2185        1850        1850
         971        2049         973         973
        2049        1137        1671        1671
        1671         972         973         973
        2049        1671         973         973
         282         287        2058        2058
         287         284         298         298
         298         296        2058        2058
         287         298        2058        2058
        1349        2059        1352        1352
        2059         296        2106        2106
        2106        1350        1352        1352
        2059        2106        1352        1352
          31         376        2186        2186
         376         365         367         367
         367         364        2186        2186
         376         367        2186        2186
          31        2186        2182        2182
        2186         364         372         372
         372         370        2182        2182
        2186         372        2182        2182
        1732        1736        1738        1738
        1736          93         319         319
         319         317        1738        1738
        1736         319        1738        1738
        1732        1740        2079        2079
        1740        1737        2081        2081
        2081        1741        2079        2079
        1740        2081        2079        2079
        1745        1749        1751        1751
        1749          19         416         416
         416         414        1751        1751
        1749         416        1751        1751
        1745        1753        2083        2083
        1753        1750        2085        2085
        2085        1754        2083        2083
        1753        2085        2083        2083
           7        2187         442         442
        2187         447        1723        1723
        1723         440         442         442
        2187        1723         442         442
           7         444          10          10
         444         441        1948        1948
        1948           8          10          10
         444        1948          10          10
        2188        2189        2191        2191
        2189        1129        2190        2190
        2190        2111        2191        2191
        2189        2190        2191        2191
        1878        1880        1981        1981
        1880        1715        1983        1983
        1983        1915        1981        1981
        1880        1983        1981        1981
        1998        2192        1999        1999
        2192         957        1959        1959
        1959         852        1999        1999
        2192        1959        1999        1999
        1639        2193        1642        1642
        2193        1286        2036        2036
        2036        1640        1642        1642
        2193        2036        1642        1642
        2194        2195        2196        2196
        2195         958         959         959
         959         957        2196        2196
        2195         959        2196        2196
        2194        2197        2195        2195
        2197        2168        2170        2170
        2170         958        2195        2195
        2197        2170        2195        2195
        1836        2198        2118        2118
        2198         957        2192        2192
        2192        1998        2118        2118
        2198        2192        2118        2118
        1366        2199        2201        2201
        2199        2122        2200        2200
        2200        2001        2201        2201
        2199        2200        2201        2201
        1564        2202        2038        2038
        2202        1657        1658        1658
        1658        1656        2038        2038
        2202        1658        2038        2038
        1685        2039        2203        2203
        2039        1656        2037        2037
        2037        1968        2203        2203
        2039        2037        2203        2203
        1707        2204        1984        1984
        2204        1142        1147        1147
        1147        1144        1984        1984
        2204        1147        1984        1984
        1707        1986        1709        1709
        1986        1657        2202        2202
        2202        1564        1709        1709
        1986        2202        1709        1709
        1612        2205        2206        2206
        2205        1979        2149        2149
        2149        1916        2206        2206
        2205        2149        2206        2206
        2207        2209        2211        2211
        2209        2208        2210        2210
        2210        1979        2211        2211
        2209        2210        2211        2211
        2006        2212        2007        2007
        2212        1679        1682        1682
        1682        1583        2007        2007
        2212        1682        2007        2007
        2130        2214        2216        2216
        2214        1865        2215        2215
        2215        2213        2216        2216
        2214        2215        2216        2216
        1848        2217        2012        2012
        2217        1952        2011        2011
        2011        1234        2012        2012
        2217        2011        2012        2012
        1847        1852        2218        2218
        1852        1849        2169        2169
        2169        2168        2218        2218
        1852        2169        2218        2218
        1877        1881        2220        2220
        1881        1878        2219        2219
        2219        2208        2220        2220
        1881        2219        2220        2220
        1714        2221        1716        1716
        2221        1701        1703        1703
        1703        1332        1716        1716
        2221        1703        1716        1716
        1698        2014        2222        2222
        2014         432        1954        1954
        1954        1952        2222        2222
        2014        1954        2222        2222
        2183        2223        2224        2224
        2223        1698        2222        2222
        2222        1952        2224        2224
        2223        2222        2224        2224
        1692        2155        2225        2225
        2155        1892        1924        1924
        1924        1921        2225        2225
        2155        1924        2225        2225
        2226        2228        2230        2230
        2228        2227        2229        2229
        2229        2157        2230        2230
        2228        2229        2230        2230
         451         455        1955        1955
         455         447        2187        2187
        2187           7        1955        1955
         455        2187        1955        1955
         451        1956        2013        2013
        1956           9        2015        2015
        2015         432        2013        2013
        1956        2015        2013        2013
        2019        2231        2020        2020
        2231        1519        1521        1521
        1521        1475        2020        2020
        2231        1521        2020        2020
        2136        2232        2138        2138
        2232        1701        2221        2221
        2221        1714        2138        2138
        2232        2221        2138        2138
        2159        2233        2234        2234
        2233        2146        2178        2178
        2178        2027        2234        2234
        2233        2178        2234        2234
        1641        1643        2154        2154
        1643        1640        1895        1895
        1895        1892        2154        2154
        1643        1895        2154        2154
        1815        2236        2238        2238
        2236        2235        2237        2237
        2237        2173        2238        2238
        2236        2237        2238        2238
        1639        2239        2193        2193
        2239        1998        2000        2000
        2000        1286        2193        2193
        2239        2000        2193        2193
        2213        2215        2240        2240
        2215        1865        2010        2010
        2010        1519        2240        2240
        2215        2010        2240        2240
        2241        2242        2243        2243
        2242        1519        2231        2231
        2231        2019        2243        2243
        2242        2231        2243        2243
        1229        1914        2040        2040
        1914         142        1964        1964
        1964           1        2040        2040
        1914        1964        2040        2040
        1229        2041        1232        1232
        2041        1634        2151        2151
        2151        1230        1232        1232
        2041        2151        1232        1232
        1522        1930        1523        1523
        1930        1921        1974        1974
        1974        1073        1523        1523
        1930        1974        1523        1523
        1522        1525        1793        1793
        1525        1142        2204        2204
        2204        1707        1793        1793
        1525        2204        1793        1793
        1612        2206        1966        1966
        2206        1916        1965        1965
        1965        1497        1966        1966
        2206        1965        1966        1966
        1292        1363        2153        2153
        1363        1230        2152        2152
        2152        1908        2153        2153
        1363        2152        2153        2153
         276        2244        2246        2246
        2244         293        2245        2245
        2245        1349        2246        2246
        2244        2245        2246        2246
        1349        2245        2057        2057
        2245         293         294         294
         294         282        2057        2057
        2245         294        2057        2057
        1228        2247        2248        2248
        2247        1613        2045        2045
        2045         243        2248        2248
        2247        2045        2248        2248
        1228        2248        1913        1913
        2248         243        1730        1730
        1730         142        1913        1913
        2248        1730        1913        1913
        1042        2249        1971        1971
        2249        1968        1970        1970
        1970        1547        1971        1971
        2249        1970        1971        1971
        2070        2250        2251        2251
        2250        1679        2212        2212
        2212        2006        2251        2251
        2250        2212        2251        2251
        1291        1296        2053        2053
        1296        1293        1620        1620
        1620         963        2053        2053
        1296        1620        2053        2053
        1361        2252        2254        2254
        2252        2207        2253        2253
        2253        1612        2254        2254
        2252        2253        2254        2254
         277        2255        2256        2256
        2255        2052        2150        2150
        2150        1445        2256        2256
        2255        2150        2256        2256
         277        2256         280         280
        2256        1445        1796        1796
        1796         278         280         280
        2256        1796         280         280
        2257        2258        2259        2259
        2258        1811        1960        1960
        1960        1374        2259        2259
        2258        1960        2259        2259
        2257        2259        2260        2260
        2259        1374        1376        1376
        1376        1135        2260        2260
        2259        1376        2260        2260
          13        2180          16          16
        2180        1754        1756        1756
        1756          14          16          16
        2180        1756          16          16
         870        2261        2262        2262
        2261          15        1812        1812
        1812        1811        2262        2262
        2261        1812        2262        2262
          88        2179          90          90
        2179        1741        1743        1743
        1743          82          90          90
        2179        1743          90          90
        2263        2265        2267        2267
        2265        1882        2266        2266
        2266        2264        2267        2267
        2265        2266        2267        2267
        1887        2113        1890        1890
        2113        1128        2134        2134
        2134        1888        1890        1890
        2113        2134        1890        1890
        1886        1891        2268        2268
        1891        1888        1996        1996
        1996        1993        2268        2268
        1891        1996        2268        2268
        2032        2034        2124        2124
        2034        1212        1214        1214
        1214        1211        2124        2124
        2034        1214        2124        2124
        2122        2125        2200        2200
        2125        1211        2120        2120
        2120        2001        2200        2200
        2125        2120        2200        2200
        1366        2201        2269        2269
        2201        2001        2005        2005
        2005        2002        2269        2269
        2201        2005        2269        2269
        2270        2272        2274        2274
        2272        2271        2273        2273
        2273        1835        2274        2274
        2272        2273        2274        2274
        1776        2275        2276        2276
        2275        1481        1976        1976
        1976        1975        2276        2276
        2275        1976        2276        2276
        2158        2277        2278        2278
        2277        1975        2177        2177
        2177        2146        2278        2278
        2277        2177        2278        2278
        1858        1860        2072        2072
        1860        1552        1875        1875
        1875        1043        2072        2072
        1860        1875        2072        2072
        2070        2073        2279        2279
        2073        1043        1045        1045
        1045        1042        2279        2279
        2073        1045        2279        2279
        2280        2282        2284        2284
        2282        2111        2283        2283
        2283        2281        2284        2284
        2282        2283        2284        2284
        2111        2190        2112        2112
        2190        1129        1131        1131
        1131        1128        2112        2112
        2190        1131        2112        2112
        2285        2286        2288        2288
        2286        1348        2287        2287
        2287        2188        2288        2288
        2286        2287        2288        2288
        2188        2289        2189        2189
        2289        1350        1829        1829
        1829        1129        2189        2189
        2289        1829        2189        2189
        1431        2290        2292        2292
        2290        2065        2291        2291
        2291        2096        2292        2292
        2290        2291        2292        2292
        2096        2142        2098        2098
        2142        1807        2172        2172
        2172        1553        2098        2098
        2142        2172        2098        2098
        1869        2293        1871        1871
        2293        1431        2294        2294
        2294        1857        1871        1871
        2293        2294        1871        1871
        1857        2099        1859        1859
        2099        1553        1555        1555
        1555        1552        1859        1859
        2099        1555        1859        1859
        2295        2296        2298        2298
        2296        1641        2297        2297
        2297        1691        2298        2298
        2296        2297        2298        2298
        1817        2299        2300        2300
        2299        2027        2030        2030
        2030        1449        2300        2300
        2299        2030        2300        2300
        2158        2301        2277        2277
        2301        1776        2276        2276
        2276        1975        2277        2277
        2301        2276        2277        2277
        2158        2278        2161        2161
        2278        2146        2233        2233
        2233        2159        2161        2161
        2278        2233        2161        2161
        2091        2302        2303        2303
        2302        1366        2269        2269
        2269        2002        2303        2303
        2302        2269        2303        2303
        2126        2128        2304        2304
        2128        2091        2094        2094
        2094          13        2304        2304
        2128        2094        2304        2304
        2235        2305        2306        2306
        2305        1449        1450        1450
        1450        1448        2306        2306
        2305        1450        2306        2306
        1903        2307        2308        2308
        2307        2235        2306        2306
        2306        1448        2308        2308
        2307        2306        2308        2308
        2031        2309        2033        2033
        2309         371        1862        1862
        1862        1212        2033        2033
        2309        1862        2033        2033
        2310        2311        2312        2312
        2311        2031        2035        2035
        2035        2032        2312        2312
        2311        2035        2312        2312
        2263        2313        2265        2265
        2313        1886        2314        2314
        2314        1882        2265        2265
        2313        2314        2265        2265
        2140        2315        2141        2141
        2315          89        2171        2171
        2171        1807        2141        2141
        2315        2171        2141        2141
        1882        2314        2316        2316
        2314        1886        2268        2268
        2268        1993        2316        2316
        2314        2268        2316        2316
        2264        2266        2317        2317
        2266        1882        1885        1885
        1885          88        2317        2317
        2266        1885        2317        2317
        1817        2318        2299        2299
        2318        2159        2234        2234
        2234        2027        2299        2299
        2318        2234        2299        2299
        1817        2300        2319        2319
        2300        1449        2305        2305
        2305        2235        2319        2319
        2300        2305        2319        2319
        2320        2321        2322        2322
        2321        1811        2258        2258
        2258        2257        2322        2322
        2321        2258        2322        2322
        2323        2324        2325        2325
        2324         869         871         871
         871         868        2325        2325
        2324         871        2325        2325
        1882        2316        1883        1883
        2316        1993        2108        2108
        2108        1733        1883        1883
        2316        2108        1883        1883
        2264        2317        2326        2326
        2317          88          92          92
          92          89        2326        2326
        2317          92        2326        2326
        2091        2303        2092        2092
        2303        2002        2104        2104
        2104        1746        2092        2092
        2303        2104        2092        2092
        2126        2304        2327        2327
        2304          13          18          18
          18          15        2327        2327
        2304          18        2327        2327
        2047        2166        2048        2048
        2166        1135        1140        1140
        1140        1137        2048        2048
        2166        1140        2048        2048
        1987        2328        2330        2330
        2328         971        2329        2329
        2329        2183        2330        2330
        2328        2329        2330        2330
        2331        2332        2334        2334
        2332        2052        2333        2333
        2333        1710        2334        2334
        2332        2333        2334        2334
        2335        2337        2339        2339
        2337        2336        2338        2338
        2338        2331        2339        2339
        2337        2338        2339        2339
        1903        2308        1904        1904
        2308        1448        2100        2100
        2100         370        1904        1904
        2308        2100        1904        1904
        1903        1905        2175        2175
        1905         371        2309        2309
        2309        2031        2175        2175
        1905        2309        2175        2175
        2208        2219        2210        2210
        2219        1878        1980        1980
        1980        1979        2210        2210
        2219        1980        2210        2210
        1935        2342        2344        2344
        2342        2340        2343        2343
        2343        2341        2344        2344
        2342        2343        2344        2344
        2345        2346        2347        2347
        2346        2168        2197        2197
        2197        2194        2347        2347
        2346        2197        2347        2347
        1835        2348        1838        1838
        2348        2194        2349        2349
        2349        1836        1838        1838
        2348        2349        1838        1838
        1836        2349        2198        2198
        2349        2194        2196        2196
        2196         957        2198        2198
        2349        2196        2198        2198
        2116        2119        2350        2350
        2119        1998        2239        2239
        2239        1639        2350        2350
        2119        2239        2350        2350
        2183        2329        2223        2223
        2329         971        1757        1757
        1757        1698        2223        2223
        2329        1757        2223        2223
        2183        2224        2185        2185
        2224        1952        2217        2217
        2217        1848        2185        2185
        2224        2217        2185        2185
        2130        2132        2214        2214
        2132        2006        2008        2008
        2008        1865        2214        2214
        2132        2008        2214        2214
        1869        2351        2353        2353
        2351        2213        2352        2352
        2352        2023        2353        2353
        2351        2352        2353        2353
        1777        2354        1929        1929
        2354        1692        2225        2225
        2225        1921        1929        1929
        2354        2225        1929        1929
        1482        1780        2355        2355
        1780        1777        1931        1931
        1931        1522        2355        2355
        1780        1931        2355        2355
        2241        2356        2242        2242
        2356        2213        2240        2240
        2240        1519        2242        2242
        2356        2240        2242        2242
        2357        2358        2360        2360
        2358        2019        2359        2359
        2359        2136        2360        2360
        2358        2359        2360        2360
        2136        2359        2232        2232
        2359        2019        2021        2021
        2021        1701        2232        2232
        2359        2021        2232        2232
        1877        2139        1879        1879
        2139        1714        1718        1718
        1718        1715        1879        1879
        2139        1718        1879        1879
        1611        1616        2042        2042
        1616        1613        2247        2247
        2247        1228        2042        2042
        1616        2247        2042        2042
        1361        2361        1362        1362
        2361        1611        2043        2043
        2043        1230        1362        1362
        2361        2043        1362        1362
        2070        2279        2250        2250
        2279        1042        1973        1973
        1973        1679        2250        2250
        2279        1973        2250        2250
        2070        2251        2071        2071
        2251        2006        2362        2362
        2362        1858        2071        2071
        2251        2362        2071        2071
        1691        2297        1694        1694
        2297        1641        2156        2156
        2156        1692        1694        1694
        2297        2156        1694        1694
        1690        1695        2144        2144
        1695        1692        2354        2354
        2354        1777        2144        2144
        1695        2354        2144        2144
        2295        2363        2364        2364
        2363        2116        2350        2350
        2350        1639        2364        2364
        2363        2350        2364        2364
        2226        2230        2366        2366
        2230        2157        2365        2365
        2365        1816        2366        2366
        2230        2365        2366        2366
        2341        2368        2370        2370
        2368        2335        2369        2369
        2369        2367        2370        2370
        2368        2369        2370        2370
        2371        2374        2376        2376
        2374        2372        2375        2375
        2375        2373        2376        2376
        2374        2375        2376        2376
        1816        2377        1819        1819
        2377        2159        2318        2318
        2318        1817        1819        1819
        2377        2318        1819        1819
        2295        2364        2296        2296
        2364        1639        1644        1644
        1644        1641        2296        2296
        2364        1644        2296        2296
        2207        2211        2253        2253
        2211        1979        2205        2205
        2205        1612        2253        2253
        2211        2205        2253        2253
        2336        2378        2379        2379
        2378        1292        1294        1294
        1294        1291        2379        2379
        2378        1294        2379        2379
        1843        2380        2381        2381
        2380        2168        2346        2346
        2346        2345        2381        2381
        2380        2346        2381        2381
        1842        2382        2384        2384
        2382        2164        2383        2383
        2383        1988        2384        2384
        2382        2383        2384        2384
        1563        1568        2076        2076
        1568        1565        2074        2074
        2074        1605        2076        2076
        1568        2074        2076        2076
        1480        2385        2386        2386
        2385        1563        2078        2078
        2078        2075        2386        2386
        2385        2078        2386        2386
        2126        2327        2387        2387
        2327          15        2261        2261
        2261         870        2387        2387
        2327        2261        2387        2387
         869        2388         872         872
        2388        2126        2387        2387
        2387         870         872         872
        2388        2387         872         872
        2320        2389        2321        2321
        2389         870        2262        2262
        2262        1811        2321        2321
        2389        2262        2321        2321
        1843        2390        2391        2391
        2390        1988        1990        1990
        1990        1847        2391        2391
        2390        1990        2391        2391
        2264        2326        2392        2392
        2326          89        2315        2315
        2315        2140        2392        2392
        2326        2315        2392        2392
        2064        2393        2394        2394
        2393        2264        2392        2392
        2392        2140        2394        2394
        2393        2392        2394        2394
        1710        2333        1712        1712
        2333        2052        2255        2255
        2255         277        1712        1712
        2333        2255        1712        1712
        2367        2395        2397        2397
        2395        1710        2396        2396
        2396        2285        2397        2397
        2395        2396        2397        2397
        1685        2203        1686        1686
        2203        1968        2249        2249
        2249        1042        1686        1686
        2203        2249        1686        1686
        1685        1687        1783        1783
        1687        1044        2061        2061
        2061        1565        1783        1783
        1687        2061        1783        1783
        1361        2254        2361        2361
        2254        1612        1614        1614
        1614        1611        2361        2361
        2254        1614        2361        2361
        2336        2398        2378        2378
        2398        1361        1364        1364
        1364        1292        2378        2378
        2398        1364        2378        2378
         276        2399         279         279
        2399        1348        1713        1713
        1713         277         279         279
        2399        1713         279         279
        1348        1353        2287        2287
        1353        1350        2289        2289
        2289        2188        2287        2287
        1353        2289        2287        2287
        2173        2237        2174        2174
        2237        2235        2307        2307
        2307        1903        2174        2174
        2237        2307        2174        2174
        2310        2312        2402        2402
        2312        2032        2401        2401
        2401        2400        2402        2402
        2312        2401        2402        2402
        1367        1369        2127        2127
        1369        1366        2302        2302
        2302        2091        2127        2127
        1369        2302        2127        2127
         869        2403        2388        2388
        2403        1367        2129        2129
        2129        2126        2388        2388
        2403        2129        2388        2388
        2064        2394        2067        2067
        2394        2140        2404        2404
        2404        2065        2067        2067
        2394        2404        2067        2067
        2405        2406        2407        2407
        2406        1886        2313        2313
        2313        2263        2407        2407
        2406        2313        2407        2407
        2408        2410        2412        2412
        2410        2409        2411        2411
        2411        2336        2412        2412
        2410        2411        2412        2412
        2331        2413        2332        2332
        2413        1291        2055        2055
        2055        2052        2332        2332
        2413        2055        2332        2332
        2281        2283        2414        2414
        2283        2111        2114        2114
        2114        1887        2414        2414
        2283        2114        2414        2414
        2405        2415        2416        2416
        2415        2281        2414        2414
        2414        1887        2416        2416
        2415        2414        2416        2416
        2405        2416        2406        2406
        2416        1887        1889        1889
        1889        1886        2406        2406
        2416        1889        2406        2406
        2372        2417        2419        2419
        2417        1430        2418        2418
        2418        2022        2419        2419
        2417        2418        2419        2419
        2400        2401        2420        2420
        2401        2032        2123        2123
        2123        2122        2420        2420
        2401        2123        2420        2420
        1365        2421        2422        2422
        2421        2400        2420        2420
        2420        2122        2422        2422
        2421        2420        2422        2422
        2423        2425        2427        2427
        2425        1941        2426        2426
        2426        2424        2427        2427
        2425        2426        2427        2427
        2310        2428        2311        2311
        2428        2173        2176        2176
        2176        2031        2311        2311
        2428        2176        2311        2311
        1365        2422        1368        1368
        2422        2122        2199        2199
        2199        1366        1368        1368
        2422        2199        1368        1368
        2429        2430        2431        2431
        2430        1367        2403        2403
        2403         869        2431        2431
        2430        2403        2431        2431
        2065        2404        2291        2291
        2404        2140        2143        2143
        2143        2096        2291        2291
        2404        2143        2291        2291
        2371        2433        2374        2374
        2433        2432        2434        2434
        2434        2372        2374        2374
        2433        2434        2374        2374
        2435        2436        2438        2438
        2436        2295        2437        2437
        2437        2227        2438        2438
        2436        2437        2438        2438
        1815        1820        2236        2236
        1820        1817        2319        2319
        2319        2235        2236        2236
        1820        2319        2236        2236
        2439        2440        2442        2442
        2440        2285        2441        2441
        2441        2280        2442        2442
        2440        2441        2442        2442
        2280        2443        2282        2282
        2443        2188        2191        2191
        2191        2111        2282        2282
        2443        2191        2282        2282
        1431        2292        2294        2294
        2292        2096        2097        2097
        2097        1857        2294        2294
        2292        2097        2294        2294
        1429        2444        2025        2025
        2444        1869        2353        2353
        2353        2023        2025        2025
        2444        2353        2025        2025
        2445        2446        2448        2448
        2446        1690        2447        2447
        2447        2158        2448        2448
        2446        2447        2448        2448
        2157        2162        2365        2365
        2162        2159        2377        2377
        2377        1816        2365        2365
        2162        2377        2365        2365
        2164        2449        2165        2165
        2449        2257        2260        2260
        2260        1135        2165        2165
        2449        2260        2165        2165
        1988        2383        2450        2450
        2383        2164        2167        2167
        2167        2047        2450        2450
        2383        2167        2450        2450
        1815        2238        2451        2451
        2238        2173        2428        2428
        2428        2310        2451        2451
        2238        2428        2451        2451
        2452        2454        2456        2456
        2454        2310        2455        2455
        2455        2453        2456        2456
        2454        2455        2456        2456
        2409        2457        2411        2411
        2457        1361        2398        2398
        2398        2336        2411        2411
        2457        2398        2411        2411
        2336        2379        2338        2338
        2379        1291        2413        2413
        2413        2331        2338        2338
        2379        2413        2338        2338
         276         281        2244        2244
         281         278        2056        2056
        2056         293        2244        2244
         281        2056        2244        2244
         276        2246        2399        2399
        2246        1349        1351        1351
        1351        1348        2399        2399
        2246        1351        2399        2399
        2357        2458        2358        2358
        2458        2241        2243        2243
        2243        2019        2358        2358
        2458        2243        2358        2358
        2459        2460        2461        2461
        2460        2357        2360        2360
        2360        2136        2461        2461
        2460        2360        2461        2461
        2023        2352        2462        2462
        2352        2213        2356        2356
        2356        2241        2462        2462
        2352        2356        2462        2462
        2023        2462        2463        2463
        2462        2241        2458        2458
        2458        2357        2463        2463
        2462        2458        2463        2463
        1835        2464        2348        2348
        2464        2345        2347        2347
        2347        2194        2348        2348
        2464        2347        2348        2348
        1834        1839        2465        2465
        1839        1836        2117        2117
        2117        2116        2465        2465
        1839        2117        2465        2465
        1480        1485        1792        1792
        1485        1482        2355        2355
        2355        1522        1792        1792
        1485        2355        1792        1792
        1482        1484        1778        1778
        1484        1481        2275        2275
        2275        1776        1778        1778
        1484        2275        1778        1778
        1987        1991        2466        2466
        1991        1988        2450        2450
        2450        2047        2466        2466
        1991        2450        2466        2466
        1843        1845        2390        2390
        1845        1842        2384        2384
        2384        1988        2390        2390
        1845        2384        2390        2390
        1690        2145        2447        2447
        2145        1776        2301        2301
        2301        2158        2447        2447
        2145        2301        2447        2447
        2445        2448        2467        2467
        2448        2158        2160        2160
        2160        2157        2467        2467
        2448        2160        2467        2467
        1842        2468        2469        2469
        2468        2320        2322        2322
        2322        2257        2469        2469
        2468        2322        2469        2469
        1842        2469        2382        2382
        2469        2257        2449        2449
        2449        2164        2382        2382
        2469        2449        2382        2382
        2408        2470        2410        2410
        2470        2207        2471        2471
        2471        2409        2410        2410
        2470        2471        2410        2410
        2409        2471        2457        2457
        2471        2207        2252        2252
        2252        1361        2457        2457
        2471        2252        2457        2457
        1843        2391        2380        2380
        2391        1847        2218        2218
        2218        2168        2380        2380
        2391        2218        2380        2380
        2472        2473        2475        2475
        2473        1841        2474        2474
        2474        2271        2475        2475
        2473        2474        2475        2475
        2435        2476        2477        2477
        2476        1834        2465        2465
        2465        2116        2477        2477
        2476        2465        2477        2477
        2478        2479        2481        2481
        2479        2453        2480        2480
        2480        2400        2481        2481
        2479        2480        2481        2481
        2482        2483        2485        2485
        2483        2263        2484        2484
        2484        2064        2485        2485
        2483        2484        2485        2485
        2064        2484        2393        2393
        2484        2263        2267        2267
        2267        2264        2393        2393
        2484        2267        2393        2393
         868         873        2486        2486
         873         870        2389        2389
        2389        2320        2486        2486
         873        2389        2486        2486
        2487        2488        2490        2490
        2488        2472        2489        2489
        2489        2323        2490        2490
        2488        2489        2490        2490
        2459        2461        2491        2491
        2461        2136        2137        2137
        2137        1877        2491        2491
        2461        2137        2491        2491
        1936        2492        1939        1939
        2492        1877        2493        2493
        2493        1937        1939        1939
        2492        2493        1939        1939
        2341        2370        2495        2495
        2370        2367        2494        2494
        2494        2439        2495        2495
        2370        2494        2495        2495
        2408        2496        2470        2470
        2496        2208        2209        2209
        2209        2207        2470        2470
        2496        2209        2470        2470
        1937        2493        2497        2497
        2493        1877        2220        2220
        2220        2208        2497        2497
        2493        2220        2497        2497
        2340        2498        2499        2499
        2498        2208        2496        2496
        2496        2408        2499        2499
        2498        2496        2499        2499
        2227        2437        2500        2500
        2437        2295        2298        2298
        2298        1691        2500        2500
        2437        2298        2500        2500
        2445        2501        2502        2502
        2501        2227        2500        2500
        2500        1691        2502        2502
        2501        2500        2502        2502
        2452        2503        2454        2454
        2503        1815        2451        2451
        2451        2310        2454        2454
        2503        2451        2454        2454
        2435        2477        2436        2436
        2477        2116        2363        2363
        2363        2295        2436        2436
        2477        2363        2436        2436
        1868        1872        2504        2504
        1872        1857        1861        1861
        1861        1858        2504        2504
        1872        1861        2504        2504
        1869        2505        2351        2351
        2505        2130        2216        2216
        2216        2213        2351        2351
        2505        2216        2351        2351
        2445        2467        2501        2501
        2467        2157        2229        2229
        2229        2227        2501        2501
        2467        2229        2501        2501
        2445        2502        2446        2446
        2502        1691        1693        1693
        1693        1690        2446        2446
        2502        1693        2446        2446
        1480        1794        2385        2385
        1794        1707        1708        1708
        1708        1563        2385        2385
        1794        1708        2385        2385
        1480        2386        1483        1483
        2386        2075        2090        2090
        2090        1481        1483        1483
        2386        2090        1483        1483
        2506        2507        2508        2508
        2507        1842        1844        1844
        1844        1841        2508        2508
        2507        1844        2508        2508
        2271        2474        2510        2510
        2474        1841        2509        2509
        2509        2345        2510        2510
        2474        2509        2510        2510
        2285        2396        2286        2286
        2396        1710        1711        1711
        1711        1348        2286        2286
        2396        1711        2286        2286
        2285        2288        2441        2441
        2288        2188        2443        2443
        2443        2280        2441        2441
        2288        2443        2441        2441
        2367        2511        2395        2395
        2511        2331        2334        2334
        2334        1710        2395        2395
        2511        2334        2395        2395
        2512        2514        2516        2516
        2514        2439        2515        2515
        2515        2513        2516        2516
        2514        2515        2516        2516
        2453        2455        2480        2480
        2455        2310        2402        2402
        2402        2400        2480        2480
        2455        2402        2480        2480
        2478        2481        2517        2517
        2481        2400        2421        2421
        2421        1365        2517        2517
        2481        2421        2517        2517
        2518        2519        2520        2520
        2519        2281        2415        2415
        2415        2405        2520        2520
        2519        2415        2520        2520
        2482        2521        2522        2522
        2521        2518        2520        2520
        2520        2405        2522        2522
        2521        2520        2522        2522
        1987        2466        2328        2328
        2466        2047        2050        2050
        2050         971        2328        2328
        2466        2050        2328        2328
        1987        2330        1989        1989
        2330        2183        2184        2184
        2184        1847        1989        1989
        2330        2184        1989        1989
        2429        2523        2525        2525
        2523        2323        2524        2524
        2524        2478        2525        2525
        2523        2524        2525        2525
        2526        2527        2528        2528
        2527        2478        2524        2524
        2524        2323        2528        2528
        2527        2524        2528        2528
        2513        2529        2530        2530
        2529        2280        2284        2284
        2284        2281        2530        2530
        2529        2284        2530        2530
        2513        2530        2531        2531
        2530        2281        2519        2519
        2519        2518        2531        2531
        2530        2519        2531        2531
        1430        2532        1433        1433
        2532        2065        2290        2290
        2290        1431        1433        1433
        2532        2290        1433        1433
        2533        2534        2536        2536
        2534        2022        2535        2535
        2535        2357        2536        2536
        2534        2535        2536        2536
        1941        1946        2538        2538
        1946        1943        2537        2537
        2537        2226        2538        2538
        1946        2537        2538        2538
        2539        2540        2542        2542
        2540        1816        2541        2541
        2541        2452        2542        2542
        2540        2541        2542        2542
        2335        2543        2337        2337
        2543        2408        2412        2412
        2412        2336        2337        2337
        2543        2412        2337        2337
        2335        2339        2369        2369
        2339        2331        2511        2511
        2511        2367        2369        2369
        2339        2511        2369        2369
        2452        2541        2503        2503
        2541        1816        1818        1818
        1818        1815        2503        2503
        2541        1818        2503        2503
        1942        2544        2546        2546
        2544        2270        2545        2545
        2545        1834        2546        2546
        2544        2545        2546        2546
        1841        1846        2509        2509
        1846        1843        2381        2381
        2381        2345        2509        2509
        1846        2381        2509        2509
        2271        2510        2273        2273
        2510        2345        2464        2464
        2464        1835        2273        2273
        2510        2464        2273        2273
        2270        2274        2545        2545
        2274        1835        1837        1837
        1837        1834        2545        2545
        2274        1837        2545        2545
        2472        2547        2473        2473
        2547        2506        2508        2508
        2508        1841        2473        2473
        2547        2508        2473        2473
        2423        2548        2425        2425
        2548        1942        1944        1944
        1944        1941        2425        2425
        2548        1944        2425        2425
        2526        2549        2551        2551
        2549        2472        2550        2550
        2550        2423        2551        2551
        2549        2550        2551        2551
        1936        2552        2492        2492
        2552        2459        2491        2491
        2491        1877        2492        2492
        2552        2491        2492        2492
        2512        2553        2554        2554
        2553        1935        2344        2344
        2344        2341        2554        2554
        2553        2344        2554        2554
        2340        2555        2498        2498
        2555        1937        2497        2497
        2497        2208        2498        2498
        2555        2497        2498        2498
        2340        2499        2556        2556
        2499        2408        2543        2543
        2543        2335        2556        2556
        2499        2543        2556        2556
        1429        1434        2444        2444
        1434        1431        2293        2293
        2293        1869        2444        2444
        1434        2293        2444        2444
        2022        2026        2535        2535
        2026        2023        2463        2463
        2463        2357        2535        2535
        2026        2463        2535        2535
        2533        2536        2557        2557
        2536        2357        2460        2460
        2460        2459        2557        2557
        2536        2460        2557        2557
        2022        2418        2024        2024
        2418        1430        1432        1432
        1432        1429        2024        2024
        2418        1432        2024        2024
        2424        2558        2559        2559
        2558        2452        2456        2456
        2456        2453        2559        2559
        2558        2456        2559        2559
        2424        2559        2560        2560
        2559        2453        2479        2479
        2479        2478        2560        2560
        2559        2479        2560        2560
        1868        2504        2131        2131
        2504        1858        2362        2362
        2362        2006        2131        2131
        2504        2362        2131        2131
        1868        2133        1870        1870
        2133        2130        2505        2505
        2505        1869        1870        1870
        2133        2505        1870        1870
        2432        2561        2563        2563
        2561        2482        2562        2562
        2562        2063        2563        2563
        2561        2562        2563        2563
        2063        2068        2564        2564
        2068        2065        2532        2532
        2532        1430        2564        2564
        2068        2532        2564        2564
        2373        2565        2566        2566
        2565        2459        2552        2552
        2552        1936        2566        2566
        2565        2552        2566        2566
        2372        2419        2567        2567
        2419        2022        2534        2534
        2534        2533        2567        2567
        2419        2534        2567        2567
        2539        2568        2540        2540
        2568        2226        2366        2366
        2366        1816        2540        2540
        2568        2366        2540        2540
        2539        2542        2569        2569
        2542        2452        2558        2558
        2558        2424        2569        2569
        2542        2558        2569        2569
        2439        2494        2440        2440
        2494        2367        2397        2397
        2397        2285        2440        2440
        2494        2397        2440        2440
        2439        2442        2515        2515
        2442        2280        2529        2529
        2529        2513        2515        2515
        2442        2529        2515        2515
        2506        2570        2571        2571
        2570         868        2486        2486
        2486        2320        2571        2571
        2570        2486        2571        2571
        2506        2571        2507        2507
        2571        2320        2468        2468
        2468        1842        2507        2507
        2571        2468        2507        2507
        1942        2546        2572        2572
        2546        1834        2476        2476
        2476        2435        2572        2572
        2546        2476        2572        2572
        1943        1945        2573        2573
        1945        1942        2572        2572
        2572        2435        2573        2573
        1945        2572        2573        2573
        2429        2525        2574        2574
        2525        2478        2517        2517
        2517        1365        2574        2574
        2525        2517        2574        2574
        2487        2575        2488        2488
        2575        2506        2547        2547
        2547        2472        2488        2488
        2575        2547        2488        2488
        2482        2522        2483        2483
        2522        2405        2407        2407
        2407        2263        2483        2483
        2522        2407        2483        2483
        2482        2485        2562        2562
        2485        2064        2066        2066
        2066        2063        2562        2562
        2485        2066        2562        2562
        2429        2574        2430        2430
        2574        1365        1370        1370
        1370        1367        2430        2430
        2574        1370        2430        2430
        2429        2431        2523        2523
        2431         869        2324        2324
        2324        2323        2523        2523
        2431        2324        2523        2523
        1943        2573        2576        2576
        2573        2435        2438        2438
        2438        2227        2576        2576
        2573        2438        2576        2576
        1943        2576        2537        2537
        2576        2227        2228        2228
        2228        2226        2537        2537
        2576        2228        2537        2537
        2577        2578        2579        2579
        2578        2513        2531        2531
        2531        2518        2579        2579
        2578        2531        2579        2579
        2432        2580        2581        2581
        2580        2577        2579        2579
        2579        2518        2581        2581
        2580        2579        2581        2581
        2512        2554        2514        2514
        2554        2341        2495        2495
        2495        2439        2514        2514
        2554        2495        2514        2514
        2341        2343        2368        2368
        2343        2340        2556        2556
        2556        2335        2368        2368
        2343        2556        2368        2368
        2371        2582        2584        2584
        2582        1935        2583        2583
        2583        2577        2584        2584
        2582        2583        2584        2584
        1935        1940        2342        2342
        1940        1937        2555        2555
        2555        2340        2342        2342
        1940        2555        2342        2342
        2472        2475        2585        2585
        2475        2271        2272        2272
        2272        2270        2585        2585
        2475        2272        2585        2585
        2423        2550        2586        2586
        2550        2472        2585        2585
        2585        2270        2586        2586
        2550        2585        2586        2586
        1941        2538        2587        2587
        2538        2226        2568        2568
        2568        2539        2587        2587
        2538        2568        2587        2587
        1941        2587        2426        2426
        2587        2539        2569        2569
        2569        2424        2426        2426
        2587        2569        2426        2426
        2373        2588        2565        2565
        2588        2533        2557        2557
        2557        2459        2565        2565
        2588        2557        2565        2565
        2373        2566        2589        2589
        2566        1936        1938        1938
        1938        1935        2589        2589
        2566        1938        2589        2589
        2372        2590        2417        2417
        2590        2063        2564        2564
        2564        1430        2417        2417
        2590        2564        2417        2417
        2372        2567        2375        2375
        2567        2533        2588        2588
        2588        2373        2375        2375
        2567        2588        2375        2375
        2423        2586        2548        2548
        2586        2270        2544        2544
        2544        1942        2548        2548
        2586        2544        2548        2548
        2526        2551        2591        2591
        2551        2423        2427        2427
        2427        2424        2591        2591
        2551        2427        2591        2591
        2432        2581        2561        2561
        2581        2518        2521        2521
        2521        2482        2561        2561
        2581        2521        2561        2561
        2432        2563        2434        2434
        2563        2063        2590        2590
        2590        2372        2434        2434
        2563        2590        2434        2434
        2512        2516        2592        2592
        2516        2513        2578        2578
        2578        2577        2592        2592
        2516        2578        2592        2592
        2512        2592        2553        2553
        2592        2577        2583        2583
        2583        1935        2553        2553
        2592        2583        2553        2553
        2526        2591        2527        2527
        2591        2424        2560        2560
        2560        2478        2527        2527
        2591        2560        2527        2527
        2526        2528        2549        2549
        2528        2323        2489        2489
        2489        2472        2549        2549
        2528        2489        2549        2549
        2371        2376        2582        2582
        2376        2373        2589        2589
        2589        1935        2582        2582
        2376        2589        2582        2582
        2371        2584        2433        2433
        2584        2577        2580        2580
        2580        2432        2433        2433
        2584        2580        2433        2433
        2487        2490        2593        2593
        2490        2323        2325        2325
        2325         868        2593        2593
        2490        2325        2593        2593
        2487        2593        2575        2575
        2593         868        2570        2570
        2570        2506        2575        2575
        2593        2570        2575        2575
 VARIABLES = X,Y,DU1,DU2,U1,U2,S11,S22,S33,S12
 ZONE, T="0.1000D+01" F=FEPOINT, I=   43 J=   40
   0.2104266617E-02   0.2631226901E-03   0.1541355695E-02   0.5642540907E-04   0.0000000000E+00   0.0000000000E+00   0.3862091806E+01   0.7772822379E+00   0.0000000000E+00   0.5038657338E-01
   0.1841943492E-02   0.5473113801E-03   0.1514326504E-02   0.4505685713E-04   0.0000000000E+00   0.0000000000E+00   0.3831622069E+01   0.3047151235E+01   0.0000000000E+00   0.1021210707E+01
   0.1500148148E-02   0.1281878672E-04   0.1500148148E-02   0.1281878672E-04   0.0000000000E+00   0.0000000000E+00   0.2422867848E+00   0.2102278188E+00   0.0000000000E+00  -0.2925475926E-03
   0.1996204308E-02   0.4245675815E-03   0.1527057721E-02   0.5107864947E-04   0.0000000000E+00   0.0000000000E+00   0.5405789287E+01   0.2751678237E+01   0.0000000000E+00   0.1356165412E+01
   0.1589438384E-02   0.1511331425E-03   0.1507534137E-02   0.2556951153E-04   0.0000000000E+00   0.0000000000E+00   0.1473405006E+02   0.9355817846E+01   0.0000000000E+00   0.2013532023E+01
   0.1660376711E-02   0.8127348101E-04   0.1519648981E-02   0.2959916071E-04   0.0000000000E+00   0.0000000000E+00   0.1484566679E+02   0.4795587105E+01   0.0000000000E+00  -0.1909296082E+01
   0.2148272293E-02  -0.1104361890E-03   0.1573479034E-02   0.6045908797E-04   0.0000000000E+00   0.0000000000E+00   0.2878880539E+01  -0.1810424729E+00   0.0000000000E+00  -0.7880996477E+00
   0.2157925490E-02   0.7996654345E-04   0.1558561846E-02   0.6110538225E-04   0.0000000000E+00   0.0000000000E+00   0.4561033834E+01   0.7504603088E+00   0.0000000000E+00  -0.3665050126E+00
   0.1676520466E-02  -0.1294102483E-04   0.1532822151E-02   0.2978279437E-04   0.0000000000E+00   0.0000000000E+00   0.1163865990E+02   0.6583082609E+01   0.0000000000E+00  -0.6283638047E+01
   0.1473921013E-02   0.6408977725E-03   0.1499065999E-02   0.4176486351E-04   0.0000000000E+00   0.0000000000E+00   0.3200965730E+01   0.3639770307E+01   0.0000000000E+00  -0.5314097980E-01
   0.1664946111E-02   0.6212310114E-03   0.1506142195E-02   0.4298033345E-04   0.0000000000E+00   0.0000000000E+00   0.4039564682E+01   0.4619250429E+01   0.0000000000E+00   0.7986691349E+00
   0.1493243531E-02   0.1739425344E-03   0.1499529778E-02   0.2415930740E-04   0.0000000000E+00   0.0000000000E+00   0.1268472868E+02   0.1100359986E+02   0.0000000000E+00  -0.2256663932E+00
   0.1114316916E-02   0.5192605722E-03   0.1482865881E-02   0.4622341422E-04   0.0000000000E+00   0.0000000000E+00   0.3955183839E+01   0.2770076929E+01   0.0000000000E+00  -0.1024939104E+01
   0.1284988606E-02   0.6064110266E-03   0.1491685887E-02   0.4350010457E-04   0.0000000000E+00   0.0000000000E+00   0.4184651507E+01   0.4546209893E+01   0.0000000000E+00  -0.1039297393E+01
   0.1399022120E-02   0.1442908058E-03   0.1491159361E-02   0.2603151584E-04   0.0000000000E+00   0.0000000000E+00   0.1520741214E+02   0.8753699407E+01   0.0000000000E+00  -0.1948175575E+01
   0.8806247036E-03   0.2284088598E-03   0.1455417963E-02   0.5751358282E-04   0.0000000000E+00   0.0000000000E+00   0.3755647008E+01   0.6646175987E+00   0.0000000000E+00   0.6083771908E-01
   0.9743427862E-03   0.3905811223E-03   0.1469616522E-02   0.5250357727E-04   0.0000000000E+00   0.0000000000E+00   0.5326282602E+01   0.2373299288E+01   0.0000000000E+00  -0.1134425994E+01
   0.1335355089E-02   0.7266966452E-04   0.1479053404E-02   0.2994584532E-04   0.0000000000E+00   0.0000000000E+00   0.1463585140E+02   0.4677553516E+01   0.0000000000E+00   0.2460236818E+01
   0.8572478564E-03  -0.1347459100E-03   0.1424369578E-02   0.6010131000E-04   0.0000000000E+00   0.0000000000E+00   0.2756712435E+01  -0.1331001832E+00   0.0000000000E+00   0.8565895736E+00
   0.8391873833E-03   0.4886892833E-04   0.1438715813E-02   0.6144418233E-04   0.0000000000E+00   0.0000000000E+00   0.4425816607E+01   0.6531454375E+00   0.0000000000E+00   0.4848423556E+00
   0.1324503059E-02  -0.1910150299E-04   0.1466283490E-02   0.2961030201E-04   0.0000000000E+00   0.0000000000E+00   0.1138034892E+02   0.6870914558E+01   0.0000000000E+00   0.6514082944E+01
   0.1046992637E-02  -0.4483273478E-03   0.1395382048E-02   0.3974776024E-04   0.0000000000E+00   0.0000000000E+00   0.2602515146E+00  -0.3401585089E+00   0.0000000000E+00   0.3974776136E+00
   0.9273744217E-03  -0.3050212842E-03   0.1408036260E-02   0.5352673084E-04   0.0000000000E+00   0.0000000000E+00   0.2516323748E+01   0.7179741444E+00   0.0000000000E+00   0.1840010637E+01
   0.1366363146E-02  -0.1024364400E-03   0.1453460499E-02   0.1958233703E-04   0.0000000000E+00   0.0000000000E+00   0.4082086550E+01   0.8679935131E+01   0.0000000000E+00   0.4556786669E+01
   0.1381636858E-02  -0.5995240180E-03   0.1381636858E-02   0.1363110338E-06   0.0000000000E+00   0.0000000000E+00   0.3657693107E+01  -0.1904263229E+00   0.0000000000E+00   0.7781738355E+00
   0.1200850797E-02  -0.5504054745E-03   0.1383762274E-02   0.2067762846E-04   0.0000000000E+00   0.0000000000E+00   0.5218548875E+00  -0.4221337071E+00   0.0000000000E+00   0.4503637782E+00
   0.1446714883E-02  -0.1476668968E-03   0.1446714883E-02   0.2248185171E-05   0.0000000000E+00   0.0000000000E+00  -0.1591335474E+01   0.1848389864E+01   0.0000000000E+00   0.3075317346E-01
   0.1618265520E-02  -0.5996603290E-03   0.1618265520E-02   0.0000000000E+00   0.0000000000E+00   0.0000000000E+00   0.3705172779E+01  -0.2023843068E+00   0.0000000000E+00  -0.7810254503E+00
   0.1962200032E-02  -0.4398431809E-03   0.1603651988E-02   0.4081865709E-04   0.0000000000E+00   0.0000000000E+00   0.2860620035E+00  -0.3145273657E+00   0.0000000000E+00  -0.4611058869E+00
   0.1804841208E-02  -0.5478596650E-03   0.1615951469E-02   0.2127400502E-04   0.0000000000E+00   0.0000000000E+00   0.5771666713E+00  -0.3456944761E+00   0.0000000000E+00  -0.4815631662E+00
   0.1635703338E-02  -0.1001756477E-03   0.1546066327E-02   0.1998981232E-04   0.0000000000E+00   0.0000000000E+00   0.4387657431E+01   0.8775068886E+01   0.0000000000E+00  -0.4768454210E+01
   0.1553178748E-02  -0.1477125107E-03   0.1553178748E-02   0.2202571255E-05   0.0000000000E+00   0.0000000000E+00  -0.1724251988E+01   0.1853511666E+01   0.0000000000E+00   0.6641142052E-02
   0.2082084831E-02  -0.2887420441E-03   0.1590383357E-02   0.5451030793E-04   0.0000000000E+00   0.0000000000E+00   0.2731644405E+01   0.7274737496E+00   0.0000000000E+00  -0.1865892741E+01
   0.1636457174E-02   0.1258785850E-03   0.1513199869E-02   0.2775309431E-04   0.0000000000E+00   0.0000000000E+00   0.1484566679E+02   0.4795587105E+01   0.0000000000E+00  -0.1909296082E+01
   0.1684276606E-02   0.3597787456E-04   0.1526807807E-02   0.3102254441E-04   0.0000000000E+00   0.0000000000E+00   0.1163865990E+02   0.6583082609E+01   0.0000000000E+00  -0.6283638047E+01
   0.1544847887E-02   0.1761010560E-03   0.1503254929E-02   0.2464914603E-04   0.0000000000E+00   0.0000000000E+00   0.1473405006E+02   0.9355817846E+01   0.0000000000E+00   0.2013532023E+01
   0.1441567646E-02   0.1722825972E-03   0.1495704543E-02   0.2484839448E-04   0.0000000000E+00   0.0000000000E+00   0.1268472868E+02   0.1100359986E+02   0.0000000000E+00  -0.2256663932E+00
   0.1355624593E-02   0.1168534383E-03   0.1485343683E-02   0.2830621995E-04   0.0000000000E+00   0.0000000000E+00   0.1520741214E+02   0.8753699407E+01   0.0000000000E+00  -0.1948175575E+01
   0.1315054626E-02   0.2780280747E-04   0.1472079469E-02   0.3109644162E-04   0.0000000000E+00   0.0000000000E+00   0.1463585140E+02   0.4677553516E+01   0.0000000000E+00   0.2460236818E+01
   0.1333060190E-02  -0.6751129912E-04   0.1458952218E-02   0.2639741738E-04   0.0000000000E+00   0.0000000000E+00   0.1138034892E+02   0.6870914558E+01   0.0000000000E+00   0.6514082944E+01
   0.1399807039E-02  -0.1382915642E-03   0.1447714102E-02   0.1128305751E-04   0.0000000000E+00   0.0000000000E+00   0.4082086550E+01   0.8679935131E+01   0.0000000000E+00   0.4556786669E+01
   0.1601745259E-02  -0.1379980342E-03   0.1552118895E-02   0.1152853003E-04   0.0000000000E+00   0.0000000000E+00  -0.1724251988E+01   0.1853511666E+01   0.0000000000E+00   0.6641142052E-02
   0.1669536236E-02  -0.6335951580E-04   0.1540353162E-02   0.2682202105E-04   0.0000000000E+00   0.0000000000E+00   0.4387657431E+01   0.8775068886E+01   0.0000000000E+00  -0.4768454210E+01
           1           4          34           6
           4           2           5          34
          34           5           3           3
           6          34           3           3
           7           8          35           9
           8           1           6          35
          35           6           3           3
           9          35           3           3
           2          11          36           5
          11          10          12          36
          36          12           3           3
           5          36           3           3
          10          14          37          12
          14          13          15          37
          37          15           3           3
          12          37           3           3
          13          17          38          15
          17          16          18          38
          38          18           3           3
          15          38           3           3
          16          20          39          18
          20          19          21          39
          39          21           3           3
          18          39           3           3
          19          23          40          21
          23          22          24          40
          40          24           3           3
          21          40           3           3
          22          26          41          24
          26          25          27          41
          41          27           3           3
          24          41           3           3
          28          30          42          32
          30          29          31          42
          42          31           3           3
          32          42           3           3
          29          33          43          31
          33           7           9          43
          43           9           3           3
          31          43           3           3
