 VARIABLES = X,Y,Z,DU1,DU2,DU3,U1,U2,U3,S11,S22,S33,S12,S13,S23
 ZONE, T="0.1000D-02" F=FEPOINT, I=   12 J=    2 ET=BRICK
   0.0000000000E+00   0.0000000000E+00   0.0000000000E+00   0.0000000000E+00   0.0000000000E+00   0.0000000000E+00   0.0000000000E+00   0.0000000000E+00   0.0000000000E+00   0.3881402314E-01   0.5133974234E-14   0.5139069298E-14  -0.8330588930E-18  -0.5587024207E-17  -0.2902088110E-17
   0.1000050000E+01   0.0000000000E+00  -0.1666511950E-19   0.5000000000E-04   0.0000000000E+00  -0.1666511950E-19   0.0000000000E+00   0.0000000000E+00   0.0000000000E+00   0.3881402314E-01   0.5095197842E-14   0.5093313919E-14   0.4125051142E-17   0.6516344131E-17   0.2776441355E-18
   0.1000050000E+01   0.9999814690E+00  -0.1415622389E-19   0.5000000000E-04  -0.1853099615E-04  -0.1415622389E-19   0.0000000000E+00   0.0000000000E+00   0.0000000000E+00   0.3881402313E-01   0.5128754977E-14   0.5133962623E-14   0.1784511848E-17   0.3593583338E-17   0.3382431749E-17
   0.0000000000E+00   0.9999814690E+00  -0.1129241465E-19   0.0000000000E+00  -0.1853099615E-04  -0.1129241465E-19   0.0000000000E+00   0.0000000000E+00   0.0000000000E+00   0.3881402313E-01   0.5120110327E-14   0.5120604525E-14  -0.2497382778E-17  -0.6543322136E-18  -0.5084134601E-17
   0.0000000000E+00   0.0000000000E+00   0.9999814690E+00   0.0000000000E+00   0.0000000000E+00  -0.1853099615E-04   0.0000000000E+00   0.0000000000E+00   0.0000000000E+00   0.3881402313E-01   0.5106462646E-14   0.5098790552E-14   0.3759367972E-18  -0.3921376835E-17   0.1919255152E-17
   0.1000050000E+01   0.0000000000E+00   0.9999814690E+00   0.5000000000E-04   0.0000000000E+00  -0.1853099615E-04   0.0000000000E+00   0.0000000000E+00   0.0000000000E+00   0.3881402313E-01   0.5132421620E-14   0.5136131529E-14  -0.1671621078E-17   0.1903899936E-17  -0.1058439690E-17
   0.1000050000E+01   0.9999814690E+00   0.9999814690E+00   0.5000000000E-04  -0.1853099615E-04  -0.1853099615E-04   0.0000000000E+00   0.0000000000E+00   0.0000000000E+00   0.3881402313E-01   0.5120566634E-14   0.5113532463E-14  -0.2274993279E-17   0.1303603528E-17  -0.6898507597E-19
   0.0000000000E+00   0.9999814690E+00   0.9999814690E+00   0.0000000000E+00  -0.1853099615E-04  -0.1853099615E-04   0.0000000000E+00   0.0000000000E+00   0.0000000000E+00   0.3881402313E-01   0.5127922552E-14   0.5134542401E-14  -0.2726923676E-17  -0.6469350141E-17   0.3173601253E-17
   0.2000100000E+01   0.0000000000E+00  -0.2442473466E-19   0.1000000000E-03   0.0000000000E+00  -0.2442473466E-19   0.0000000000E+00   0.0000000000E+00   0.0000000000E+00   0.3881402314E-01   0.5093863405E-14   0.5091317883E-14  -0.3687334752E-17  -0.1997877807E-17  -0.1680115575E-18
   0.2000100000E+01   0.9999814690E+00  -0.2420549223E-19   0.1000000000E-03  -0.1853099615E-04  -0.2420549223E-19   0.0000000000E+00   0.0000000000E+00   0.0000000000E+00   0.3881402313E-01   0.5148058105E-14   0.5151657803E-14  -0.3078974145E-17  -0.1743849315E-17   0.3512631320E-19
   0.2000100000E+01   0.0000000000E+00   0.9999814690E+00   0.1000000000E-03   0.0000000000E+00  -0.1853099615E-04   0.0000000000E+00   0.0000000000E+00   0.0000000000E+00   0.3881402313E-01   0.5150062148E-14   0.5141558278E-14   0.1167703710E-17  -0.2575774742E-17   0.2289713988E-17
   0.2000100000E+01   0.9999814690E+00   0.9999814690E+00   0.1000000000E-03  -0.1853099615E-04  -0.1853099615E-04   0.0000000000E+00   0.0000000000E+00   0.0000000000E+00   0.3881402313E-01   0.5108640690E-14   0.5111549357E-14  -0.1100997964E-17  -0.2815843729E-17   0.2927323642E-17
     1     2     3     4     5     6     7     8
     2     9    10     3     6    11    12     7
 VARIABLES = X,Y,Z,DU1,DU2,DU3,U1,U2,U3,S11,S22,S33,S12,S13,S23
 ZONE, T="0.2000D-02" F=FEPOINT, I=   12 J=    2 ET=BRICK
   0.0000000000E+00   0.0000000000E+00   0.0000000000E+00   0.0000000000E+00   0.0000000000E+00   0.0000000000E+00   0.0000000000E+00   0.0000000000E+00   0.0000000000E+00   0.6987899836E-01   0.2365795665E-14   0.2373517852E-14  -0.8324195740E-18   0.1305204488E-17   0.2431059662E-17
   0.1000100000E+01   0.0000000000E+00   0.3445915500E-20   0.5000000000E-04   0.0000000000E+00   0.2011103500E-19   0.5000000000E-04   0.0000000000E+00  -0.1666511950E-19   0.6987899836E-01   0.2299605050E-14   0.2296012335E-14   0.5190523855E-17   0.9219288657E-17  -0.1407993305E-17
   0.1000100000E+01   0.9999616465E+00  -0.3889310165E-20   0.5000000000E-04  -0.1982250414E-04   0.1026691372E-19   0.5000000000E-04  -0.1853099615E-04  -0.1415622389E-19   0.6987899835E-01   0.2320924975E-14   0.2326229119E-14   0.5526603704E-19   0.4967112556E-17  -0.2032620040E-18
   0.0000000000E+00   0.9999616465E+00   0.7070175324E-20   0.0000000000E+00  -0.1982250414E-04   0.1836258998E-19   0.0000000000E+00  -0.1853099615E-04  -0.1129241465E-19   0.6987899836E-01   0.2282988061E-14   0.2279252525E-14  -0.8146160687E-17  -0.1660200899E-17  -0.5274486037E-17
   0.0000000000E+00   0.0000000000E+00   0.9999616465E+00   0.0000000000E+00   0.0000000000E+00  -0.1982250414E-04   0.0000000000E+00   0.0000000000E+00  -0.1853099615E-04   0.6987899836E-01   0.2295533556E-14   0.2300042726E-14   0.7779440207E-18  -0.8762061005E-17   0.4062949648E-18
   0.1000100000E+01   0.0000000000E+00   0.9999616465E+00   0.5000000000E-04   0.0000000000E+00  -0.1982250414E-04   0.5000000000E-04   0.0000000000E+00  -0.1853099615E-04   0.6987899835E-01   0.2327361259E-14   0.2322689481E-14   0.1391914950E-17  -0.4523311364E-18  -0.2799404978E-18
   0.1000100000E+01   0.9999616465E+00   0.9999616465E+00   0.5000000000E-04  -0.1982250414E-04  -0.1982250414E-04   0.5000000000E-04  -0.1853099615E-04  -0.1853099615E-04   0.6987899835E-01   0.2338950209E-14   0.2334274228E-14   0.1800966949E-19   0.3412097232E-17   0.9785249920E-18
   0.0000000000E+00   0.9999616465E+00   0.9999616465E+00   0.0000000000E+00  -0.1982250414E-04  -0.1982250414E-04   0.0000000000E+00  -0.1853099615E-04  -0.1853099615E-04   0.6987899835E-01   0.2344281474E-14   0.2350666479E-14  -0.4260319280E-17  -0.8960781007E-17   0.2791851290E-17
   0.2000200000E+01   0.0000000000E+00  -0.1341463185E-19   0.1000000000E-03   0.0000000000E+00   0.1101010281E-19   0.1000000000E-03   0.0000000000E+00  -0.2442473466E-19   0.6987899836E-01   0.2291594643E-14   0.2286376159E-14  -0.5307416451E-17  -0.5128500585E-17  -0.2890780635E-17
   0.2000200000E+01   0.9999616465E+00  -0.1904937454E-19   0.1000000000E-03  -0.1982250414E-04   0.5156117699E-20   0.1000000000E-03  -0.1853099615E-04  -0.2420549223E-19   0.6987899835E-01   0.2356922573E-14   0.2363158485E-14  -0.7919162905E-17  -0.7033031424E-18   0.4845017057E-17
   0.2000200000E+01   0.0000000000E+00   0.9999616465E+00   0.1000000000E-03   0.0000000000E+00  -0.1982250414E-04   0.1000000000E-03   0.0000000000E+00  -0.1853099615E-04   0.6987899835E-01   0.2407969971E-14   0.2396280454E-14   0.1231396841E-17  -0.9253257492E-17   0.6418612957E-18
   0.2000200000E+01   0.9999616465E+00   0.9999616465E+00   0.1000000000E-03  -0.1982250414E-04  -0.1982250414E-04   0.1000000000E-03  -0.1853099615E-04  -0.1853099615E-04   0.6987899834E-01   0.2269623139E-14   0.2273841340E-14  -0.3079983680E-17  -0.9284438726E-17  -0.2166023917E-18
     1     2     3     4     5     6     7     8
     2     9    10     3     6    11    12     7
 VARIABLES = X,Y,Z,DU1,DU2,DU3,U1,U2,U3,S11,S22,S33,S12,S13,S23
 ZONE, T="0.3250D-02" F=FEPOINT, I=   12 J=    2 ET=BRICK
   0.0000000000E+00   0.0000000000E+00   0.0000000000E+00   0.0000000000E+00   0.0000000000E+00   0.0000000000E+00   0.0000000000E+00   0.0000000000E+00   0.0000000000E+00   0.1026502531E+00   0.2475309019E-10   0.2475307337E-10  -0.5747957767E-18   0.7539866546E-17   0.3562399523E-17
   0.1000162500E+01   0.0000000000E+00   0.3711223890E-19   0.6250000000E-04   0.0000000000E+00   0.3366632340E-19   0.1000000000E-03   0.0000000000E+00   0.3445915500E-20   0.1026502531E+00   0.2475311496E-10   0.2475311762E-10   0.1223140471E-16   0.4989469775E-18  -0.1080739770E-17
   0.1000162500E+01   0.9999358584E+00   0.3126180139E-19   0.6250000000E-04  -0.2578812421E-04   0.3515111155E-19   0.1000000000E-03  -0.3835350029E-04  -0.3889310165E-20   0.1026502531E+00   0.2475311563E-10   0.2475312944E-10   0.5047406965E-17   0.3144775659E-17  -0.2321765843E-17
   0.0000000000E+00   0.9999358584E+00   0.1412842649E-19   0.0000000000E+00  -0.2578812421E-04   0.7058251166E-20   0.0000000000E+00  -0.3835350029E-04   0.7070175324E-20   0.1026502531E+00   0.2475313378E-10   0.2475312518E-10  -0.1660793701E-16   0.4976876903E-17   0.2781143935E-18
   0.0000000000E+00   0.0000000000E+00   0.9999358584E+00   0.0000000000E+00   0.0000000000E+00  -0.2578812421E-04   0.0000000000E+00   0.0000000000E+00  -0.3835350029E-04   0.1026502531E+00   0.2475307259E-10   0.2475308896E-10  -0.5008699026E-18   0.6627135042E-18  -0.1491352284E-17
   0.1000162500E+01   0.0000000000E+00   0.9999358584E+00   0.6250000000E-04   0.0000000000E+00  -0.2578812421E-04   0.1000000000E-03   0.0000000000E+00  -0.3835350029E-04   0.1026502531E+00   0.2475310389E-10   0.2475310460E-10   0.2220661784E-16  -0.1672559364E-16   0.9541137589E-18
   0.1000162500E+01   0.9999358584E+00   0.9999358584E+00   0.6250000000E-04  -0.2578812421E-04  -0.2578812421E-04   0.1000000000E-03  -0.3835350029E-04  -0.3835350029E-04   0.1026502531E+00   0.2475313178E-10   0.2475313444E-10   0.7073994913E-18   0.2357399819E-17  -0.7489701216E-19
   0.0000000000E+00   0.9999358584E+00   0.9999358584E+00   0.0000000000E+00  -0.2578812421E-04  -0.2578812421E-04   0.0000000000E+00  -0.3835350029E-04  -0.3835350029E-04   0.1026502531E+00   0.2475308208E-10   0.2475307784E-10  -0.6799591352E-17  -0.4633276845E-17  -0.6409450053E-19
   0.2000325000E+01   0.0000000000E+00   0.6250319838E-19   0.1250000000E-03   0.0000000000E+00   0.7591783023E-19   0.2000000000E-03   0.0000000000E+00  -0.1341463185E-19   0.1026502531E+00   0.2475308481E-10   0.2475309632E-10  -0.6421800320E-17   0.6548046327E-17   0.2054667812E-17
   0.2000325000E+01   0.9999358584E+00   0.6907540379E-19   0.1250000000E-03  -0.2578812421E-04   0.8812477833E-19   0.2000000000E-03  -0.3835350029E-04  -0.1904937454E-19   0.1026502531E+00   0.2475301953E-10   0.2475300828E-10  -0.1402342107E-16   0.7753223777E-17   0.8352449478E-18
   0.2000325000E+01   0.0000000000E+00   0.9999358584E+00   0.1250000000E-03   0.0000000000E+00  -0.2578812421E-04   0.2000000000E-03   0.0000000000E+00  -0.3835350029E-04   0.1026502531E+00   0.2475305724E-10   0.2475306849E-10  -0.9911671533E-18  -0.1098513800E-16  -0.1634024795E-17
   0.2000325000E+01   0.9999358584E+00   0.9999358584E+00   0.1250000000E-03  -0.2578812421E-04  -0.2578812421E-04   0.2000000000E-03  -0.3835350029E-04  -0.3835350029E-04   0.1026502531E+00   0.2475318946E-10   0.2475318839E-10  -0.1331840547E-16  -0.8061053277E-17  -0.1659009187E-17
     1     2     3     4     5     6     7     8
     2     9    10     3     6    11    12     7
 VARIABLES = X,Y,Z,DU1,DU2,DU3,U1,U2,U3,S11,S22,S33,S12,S13,S23
 ZONE, T="0.4813D-02" F=FEPOINT, I=   12 J=    2 ET=BRICK
   0.0000000000E+00   0.0000000000E+00   0.0000000000E+00   0.0000000000E+00   0.0000000000E+00   0.0000000000E+00   0.0000000000E+00   0.0000000000E+00   0.0000000000E+00   0.1377061684E+00   0.1543256209E-10   0.1543251534E-10  -0.1930883832E-17   0.8639023699E-16   0.7525149044E-17
   0.1000240625E+01   0.0000000000E+00   0.4007536831E-18   0.7812500000E-04   0.0000000000E+00   0.3636414442E-18   0.1625000000E-03   0.0000000000E+00   0.3711223890E-19   0.1377061684E+00   0.1543242141E-10   0.1543240174E-10   0.4814369300E-16  -0.5789332683E-16   0.3221150539E-16
   0.1000240625E+01   0.9999026385E+00   0.5625682909E-18   0.7812500000E-04  -0.3321984746E-04   0.5313064895E-18   0.1625000000E-03  -0.6414162450E-04   0.3126180139E-19   0.1377061684E+00   0.1543254391E-10   0.1543247899E-10   0.1556893766E-16  -0.4012209448E-16  -0.9028025603E-18
   0.0000000000E+00   0.9999026385E+00   0.4669900300E-19   0.0000000000E+00  -0.3321984746E-04   0.3257057651E-19   0.0000000000E+00  -0.6414162450E-04   0.1412842649E-19   0.1377061684E+00   0.1543240466E-10   0.1543239934E-10  -0.5391375510E-16   0.1059937362E-15  -0.2808498712E-16
   0.0000000000E+00   0.0000000000E+00   0.9999026385E+00   0.0000000000E+00   0.0000000000E+00  -0.3321984746E-04   0.0000000000E+00   0.0000000000E+00  -0.6414162450E-04   0.1377061684E+00   0.1543233335E-10   0.1543235492E-10   0.1006958093E-17   0.5743688186E-16   0.3262221339E-16
   0.1000240625E+01   0.0000000000E+00   0.9999026385E+00   0.7812500000E-04   0.0000000000E+00  -0.3321984746E-04   0.1625000000E-03   0.0000000000E+00  -0.6414162450E-04   0.1377061684E+00   0.1543241458E-10   0.1543246967E-10   0.2911865872E-16  -0.8411880443E-16   0.9818226219E-17
   0.1000240625E+01   0.9999026385E+00   0.9999026385E+00   0.7812500000E-04  -0.3321984746E-04  -0.3321984746E-04   0.1625000000E-03  -0.6414162450E-04  -0.6414162450E-04   0.1377061684E+00   0.1543247009E-10   0.1543247770E-10  -0.1231586475E-16  -0.8889718329E-16  -0.3090835454E-16
   0.0000000000E+00   0.9999026385E+00   0.9999026385E+00   0.0000000000E+00  -0.3321984746E-04  -0.3321984746E-04   0.0000000000E+00  -0.6414162450E-04  -0.6414162450E-04   0.1377061684E+00   0.1543246809E-10   0.1543250731E-10  -0.4507648840E-16   0.2789991708E-16  -0.1345757979E-16
   0.2000481250E+01   0.0000000000E+00   0.8195156723E-18   0.1562500000E-03   0.0000000000E+00   0.7570124739E-18   0.3250000000E-03   0.0000000000E+00   0.6250319838E-19   0.1377061684E+00   0.1543257324E-10   0.1543251087E-10  -0.3843284199E-18   0.8732051438E-16   0.3349814241E-16
   0.2000481250E+01   0.9999026385E+00   0.9816149467E-18   0.1562500000E-03  -0.3321984746E-04   0.9125395429E-18   0.3250000000E-03  -0.6414162450E-04   0.6907540379E-19   0.1377061684E+00   0.1543246670E-10   0.1543240050E-10  -0.7098786769E-17   0.8142613092E-16  -0.3421606661E-16
   0.2000481250E+01   0.0000000000E+00   0.9999026385E+00   0.1562500000E-03   0.0000000000E+00  -0.3321984746E-04   0.3250000000E-03   0.0000000000E+00  -0.6414162450E-04   0.1377061684E+00   0.1543207167E-10   0.1543216892E-10  -0.3342727593E-17   0.5389577184E-16   0.2772274619E-16
   0.2000481250E+01   0.9999026385E+00   0.9999026385E+00   0.1562500000E-03  -0.3321984746E-04  -0.3321984746E-04   0.3250000000E-03  -0.6414162450E-04  -0.6414162450E-04   0.1377061684E+00   0.1543236555E-10   0.1543242088E-10  -0.3726260837E-16   0.8432078246E-16  -0.3578019796E-16
     1     2     3     4     5     6     7     8
     2     9    10     3     6    11    12     7
 VARIABLES = X,Y,Z,DU1,DU2,DU3,U1,U2,U3,S11,S22,S33,S12,S13,S23
 ZONE, T="0.6766D-02" F=FEPOINT, I=   12 J=    2 ET=BRICK
   0.0000000000E+00   0.0000000000E+00   0.0000000000E+00   0.0000000000E+00   0.0000000000E+00   0.0000000000E+00   0.0000000000E+00   0.0000000000E+00   0.0000000000E+00   0.1755398716E+00   0.1062215141E-10   0.1062211800E-10   0.4905115960E-18  -0.5314537524E-16   0.2779314599E-17
   0.1000338281E+01   0.0000000000E+00  -0.2705053127E-18   0.9765625000E-04   0.0000000000E+00  -0.6712589958E-18   0.2406250000E-03   0.0000000000E+00   0.4007536831E-18   0.1755398716E+00   0.1062193825E-10   0.1062194074E-10  -0.2120822771E-16  -0.2394078821E-16  -0.5276003395E-18
   0.1000338281E+01   0.9998601160E+00  -0.2677698454E-18   0.9765625000E-04  -0.4252250782E-04  -0.8303381363E-18   0.2406250000E-03  -0.9736147197E-04   0.5625682909E-18   0.1755398715E+00   0.1062207965E-10   0.1062208760E-10   0.4182669011E-16  -0.2354958699E-16   0.7099907885E-17
   0.0000000000E+00   0.9998601160E+00   0.2349424410E-20   0.0000000000E+00  -0.4252250782E-04  -0.4434957859E-19   0.0000000000E+00  -0.9736147197E-04   0.4669900300E-19   0.1755398715E+00   0.1062209416E-10   0.1062204856E-10   0.6349288901E-16  -0.4841130908E-16  -0.7491965870E-18
   0.0000000000E+00   0.0000000000E+00   0.9998601160E+00   0.0000000000E+00   0.0000000000E+00  -0.4252250782E-04   0.0000000000E+00   0.0000000000E+00  -0.9736147197E-04   0.1755398715E+00   0.1062195337E-10   0.1062191250E-10  -0.3153324348E-17   0.2614303548E-16  -0.1720021908E-16
   0.1000338281E+01   0.0000000000E+00   0.9998601160E+00   0.9765625000E-04   0.0000000000E+00  -0.4252250782E-04   0.2406250000E-03   0.0000000000E+00  -0.9736147197E-04   0.1755398715E+00   0.1062210149E-10   0.1062208905E-10  -0.1392614530E-16   0.4861092373E-16   0.5280018793E-17
   0.1000338281E+01   0.9998601160E+00   0.9998601160E+00   0.9765625000E-04  -0.4252250782E-04  -0.4252250782E-04   0.2406250000E-03  -0.9736147197E-04  -0.9736147197E-04   0.1755398715E+00   0.1062202897E-10   0.1062205184E-10   0.4041774002E-16   0.4815070601E-16  -0.4828281827E-17
   0.0000000000E+00   0.9998601160E+00   0.9998601160E+00   0.0000000000E+00  -0.4252250782E-04  -0.4252250782E-04   0.0000000000E+00  -0.9736147197E-04  -0.9736147197E-04   0.1755398715E+00   0.1062208027E-10   0.1062205707E-10   0.6234336132E-16   0.3394789673E-16   0.1728655917E-16
   0.2000676562E+01   0.0000000000E+00  -0.4979434419E-18   0.1953125000E-03   0.0000000000E+00  -0.1317459114E-17   0.4812500000E-03   0.0000000000E+00   0.8195156723E-18   0.1755398716E+00   0.1062202553E-10   0.1062205298E-10  -0.2720781543E-17  -0.5830463311E-16  -0.9759431228E-17
   0.2000676562E+01   0.9998601160E+00  -0.5615300788E-18   0.1953125000E-03  -0.4252250782E-04  -0.1543145025E-17   0.4812500000E-03  -0.9736147197E-04   0.9816149467E-18   0.1755398715E+00   0.1062197942E-10   0.1062200014E-10   0.5643058742E-16  -0.5694419172E-16  -0.1233792265E-16
   0.2000676562E+01   0.0000000000E+00   0.9998601160E+00   0.1953125000E-03   0.0000000000E+00  -0.4252250782E-04   0.4812500000E-03   0.0000000000E+00  -0.9736147197E-04   0.1755398715E+00   0.1062221174E-10   0.1062221680E-10  -0.1128408766E-16   0.2821477459E-16  -0.3413012773E-17
   0.2000676562E+01   0.9998601160E+00   0.9998601160E+00   0.1953125000E-03  -0.4252250782E-04  -0.4252250782E-04   0.4812500000E-03  -0.9736147197E-04  -0.9736147197E-04   0.1755398715E+00   0.1062222663E-10   0.1062225480E-10   0.5424719056E-16   0.3166861074E-16   0.6157463954E-17
     1     2     3     4     5     6     7     8
     2     9    10     3     6    11    12     7
 VARIABLES = X,Y,Z,DU1,DU2,DU3,U1,U2,U3,S11,S22,S33,S12,S13,S23
 ZONE, T="0.9207D-02" F=FEPOINT, I=   12 J=    2 ET=BRICK
   0.0000000000E+00   0.0000000000E+00   0.0000000000E+00   0.0000000000E+00   0.0000000000E+00   0.0000000000E+00   0.0000000000E+00   0.0000000000E+00   0.0000000000E+00   0.2165997951E+00   0.7853185312E-11   0.7853148384E-11   0.2738939538E-18   0.2193129154E-18   0.1018066130E-16
   0.1000460352E+01   0.0000000000E+00  -0.6023491911E-19   0.1220703125E-03   0.0000000000E+00   0.2102703936E-18   0.3382812500E-03   0.0000000000E+00  -0.2705053127E-18   0.2165997951E+00   0.7852959233E-11   0.7853000486E-11   0.1135961987E-16   0.1541565194E-16  -0.2547935943E-17
   0.1000460352E+01   0.9998059242E+00  -0.5174612858E-19   0.1220703125E-03  -0.5419183567E-04   0.2160237168E-18   0.3382812500E-03  -0.1398839798E-03  -0.2677698454E-18   0.2165997951E+00   0.7853031470E-11   0.7853004114E-11  -0.1618805399E-17   0.2442592488E-16   0.9662256354E-18
   0.0000000000E+00   0.9998059242E+00   0.6470005744E-19   0.0000000000E+00  -0.5419183567E-04   0.6235063303E-19   0.0000000000E+00  -0.1398839798E-03   0.2349424410E-20   0.2165997951E+00   0.7853059345E-11   0.7853060327E-11  -0.1286582697E-16  -0.2050262492E-16   0.3299152771E-17
   0.0000000000E+00   0.0000000000E+00   0.9998059242E+00   0.0000000000E+00   0.0000000000E+00  -0.5419183567E-04   0.0000000000E+00   0.0000000000E+00  -0.1398839798E-03   0.2165997951E+00   0.7853072331E-11   0.7853106855E-11   0.2413875879E-17  -0.2083427991E-16   0.1888118955E-17
   0.1000460352E+01   0.0000000000E+00   0.9998059242E+00   0.1220703125E-03   0.0000000000E+00  -0.5419183567E-04   0.3382812500E-03   0.0000000000E+00  -0.1398839798E-03   0.2165997951E+00   0.7852759775E-11   0.7852748722E-11   0.1614130151E-16   0.2334676518E-16   0.3763362888E-17
   0.1000460352E+01   0.9998059242E+00   0.9998059242E+00   0.1220703125E-03  -0.5419183567E-04  -0.5419183567E-04   0.3382812500E-03  -0.1398839798E-03  -0.1398839798E-03   0.2165997951E+00   0.7852998177E-11   0.7853015359E-11   0.1577100198E-16   0.2198721639E-16  -0.5685180216E-17
   0.0000000000E+00   0.9998059242E+00   0.9998059242E+00   0.0000000000E+00  -0.5419183567E-04  -0.5419183567E-04   0.0000000000E+00  -0.1398839798E-03  -0.1398839798E-03   0.2165997951E+00   0.7852833233E-11   0.7852816873E-11  -0.4048152110E-17  -0.2704928254E-16  -0.1631202037E-16
   0.2000920703E+01   0.0000000000E+00  -0.1856837666E-18   0.2441406250E-03   0.0000000000E+00   0.3122596753E-18   0.6765625000E-03   0.0000000000E+00  -0.4979434419E-18   0.2165997951E+00   0.7852533540E-11   0.7852527134E-11  -0.2731476595E-17  -0.4020091374E-16   0.7708328204E-17
   0.2000920703E+01   0.9998059242E+00  -0.1469635067E-18   0.2441406250E-03  -0.5419183567E-04   0.4145665721E-18   0.6765625000E-03  -0.1398839798E-03  -0.5615300788E-18   0.2165997951E+00   0.7853028080E-11   0.7853067149E-11  -0.9813194435E-18  -0.1462345269E-16   0.6416045671E-17
   0.2000920703E+01   0.0000000000E+00   0.9998059242E+00   0.2441406250E-03   0.0000000000E+00  -0.5419183567E-04   0.6765625000E-03   0.0000000000E+00  -0.1398839798E-03   0.2165997951E+00   0.7853393088E-11   0.7853350472E-11  -0.1766877381E-17   0.1214533662E-16  -0.2210111453E-17
   0.2000920703E+01   0.9998059242E+00   0.9998059242E+00   0.2441406250E-03  -0.5419183567E-04  -0.5419183567E-04   0.6765625000E-03  -0.1398839798E-03  -0.1398839798E-03   0.2165997951E+00   0.7853017907E-11   0.7853023536E-11  -0.1061273522E-16  -0.4268236997E-16   0.9993590645E-19
     1     2     3     4     5     6     7     8
     2     9    10     3     6    11    12     7
 VARIABLES = X,Y,Z,DU1,DU2,DU3,U1,U2,U3,S11,S22,S33,S12,S13,S23
 ZONE, T="0.1226D-01" F=FEPOINT, I=   12 J=    2 ET=BRICK
   0.0000000000E+00   0.0000000000E+00   0.0000000000E+00   0.0000000000E+00   0.0000000000E+00   0.0000000000E+00   0.0000000000E+00   0.0000000000E+00   0.0000000000E+00   0.2613040296E+00   0.6131255492E-11   0.6131243514E-11  -0.7497734561E-17  -0.6078914827E-17   0.1622148432E-16
   0.1000612939E+01   0.0000000000E+00   0.6659450420E-19   0.1525878906E-03   0.0000000000E+00   0.1268294233E-18   0.4603515625E-03   0.0000000000E+00  -0.6023491911E-19   0.2613040296E+00   0.6131596106E-11   0.6131592062E-11   0.2147564862E-17   0.3821163016E-16  -0.2993192448E-17
   0.1000612939E+01   0.9997370809E+00   0.6476935100E-19   0.1525878906E-03  -0.6884323959E-04   0.1165154796E-18   0.4603515625E-03  -0.1940758154E-03  -0.5174612858E-19   0.2613040295E+00   0.6131644033E-11   0.6131625983E-11  -0.6232873864E-17  -0.2243686903E-16  -0.5478907505E-17
   0.0000000000E+00   0.9997370809E+00   0.8840930819E-19   0.0000000000E+00  -0.6884323959E-04   0.2370925075E-19   0.0000000000E+00  -0.1940758154E-03   0.6470005744E-19   0.2613040295E+00   0.6131675842E-11   0.6131712871E-11  -0.4296015115E-17   0.1111739092E-16   0.3277679866E-17
   0.0000000000E+00   0.0000000000E+00   0.9997370809E+00   0.0000000000E+00   0.0000000000E+00  -0.6884323959E-04   0.0000000000E+00   0.0000000000E+00  -0.1940758154E-03   0.2613040295E+00   0.6131820840E-11   0.6131848988E-11  -0.9818660141E-18  -0.1024506261E-16  -0.2532961789E-17
   0.1000612939E+01   0.0000000000E+00   0.9997370809E+00   0.1525878906E-03   0.0000000000E+00  -0.6884323959E-04   0.4603515625E-03   0.0000000000E+00  -0.1940758154E-03   0.2613040295E+00   0.6131294510E-11   0.6131276460E-11   0.1279121023E-16   0.3939009321E-18   0.7202068476E-17
   0.1000612939E+01   0.9997370809E+00   0.9997370809E+00   0.1525878906E-03  -0.6884323959E-04  -0.6884323959E-04   0.4603515625E-03  -0.1940758154E-03  -0.1940758154E-03   0.2613040295E+00   0.6131569189E-11   0.6131579155E-11  -0.8483188779E-17   0.7192460630E-17   0.1721568994E-17
   0.0000000000E+00   0.9997370809E+00   0.9997370809E+00   0.0000000000E+00  -0.6884323959E-04  -0.6884323959E-04   0.0000000000E+00  -0.1940758154E-03  -0.1940758154E-03   0.2613040295E+00   0.6131602184E-11   0.6131616330E-11  -0.3498259400E-17  -0.7937854980E-17  -0.1089413862E-16
   0.2001225879E+01   0.0000000000E+00   0.6347214318E-19   0.3051757813E-03   0.0000000000E+00   0.2491559097E-18   0.9207031250E-03   0.0000000000E+00  -0.1856837666E-18   0.2613040296E+00   0.6131333529E-11   0.6131309413E-11  -0.1968336865E-17  -0.2715942614E-16  -0.3934282013E-17
   0.2001225879E+01   0.9997370809E+00   0.2620725580E-19   0.3051757813E-03  -0.6884323959E-04   0.1731707625E-18   0.9207031250E-03  -0.1940758154E-03  -0.1469635067E-18   0.2613040295E+00   0.6131462538E-11   0.6131445424E-11  -0.2056608224E-16   0.3398717334E-16  -0.2899117127E-17
   0.2001225879E+01   0.0000000000E+00   0.9997370809E+00   0.3051757813E-03   0.0000000000E+00  -0.6884323959E-04   0.9207031250E-03   0.0000000000E+00  -0.1940758154E-03   0.2613040295E+00   0.6132016586E-11   0.6132008353E-11   0.8103036990E-17  -0.3014229256E-16  -0.1361084999E-16
   0.2001225879E+01   0.9997370809E+00   0.9997370809E+00   0.3051757813E-03  -0.6884323959E-04  -0.6884323959E-04   0.9207031250E-03  -0.1940758154E-03  -0.1940758154E-03   0.2613040295E+00   0.6131632049E-11   0.6131609808E-11   0.4232348687E-17   0.1993409114E-16   0.9679349376E-17
     1     2     3     4     5     6     7     8
     2     9    10     3     6    11    12     7
 VARIABLES = X,Y,Z,DU1,DU2,DU3,U1,U2,U3,S11,S22,S33,S12,S13,S23
 ZONE, T="0.1607D-01" F=FEPOINT, I=   12 J=    2 ET=BRICK
   0.0000000000E+00   0.0000000000E+00   0.0000000000E+00   0.0000000000E+00   0.0000000000E+00   0.0000000000E+00   0.0000000000E+00   0.0000000000E+00   0.0000000000E+00   0.3100392226E+00   0.5002880906E-11   0.5002833268E-11  -0.2081401570E-17   0.1554386419E-16  -0.3384715222E-16
   0.1000803674E+01   0.0000000000E+00   0.1585260720E-18   0.1907348633E-03   0.0000000000E+00   0.9193156780E-19   0.6129394531E-03   0.0000000000E+00   0.6659450420E-19   0.3100392226E+00   0.5002597900E-11   0.5002651654E-11   0.2460501921E-16  -0.4486815695E-16  -0.1278545125E-16
   0.1000803674E+01   0.9996498360E+00   0.6445247912E-19   0.1907348633E-03  -0.8724489948E-04  -0.3168718820E-21   0.6129394531E-03  -0.2629190550E-03   0.6476935100E-19   0.3100392226E+00   0.5002906018E-11   0.5002914366E-11   0.6254408587E-17  -0.2601347528E-16   0.2146685891E-16
   0.0000000000E+00   0.9996498360E+00  -0.2719018177E-18   0.0000000000E+00  -0.8724489948E-04  -0.3603111259E-18   0.0000000000E+00  -0.2629190550E-03   0.8840930819E-19   0.3100392226E+00   0.5002672265E-11   0.5002753608E-11  -0.1126219398E-16   0.3376014280E-16  -0.1343334764E-16
   0.0000000000E+00   0.0000000000E+00   0.9996498360E+00   0.0000000000E+00   0.0000000000E+00  -0.8724489948E-04   0.0000000000E+00   0.0000000000E+00  -0.2629190550E-03   0.3100392226E+00   0.5002843033E-11   0.5002775160E-11   0.1499043721E-17   0.6523639490E-16   0.4809110928E-17
   0.1000803674E+01   0.0000000000E+00   0.9996498360E+00   0.1907348633E-03   0.0000000000E+00  -0.8724489948E-04   0.6129394531E-03   0.0000000000E+00  -0.2629190550E-03   0.3100392226E+00   0.5002922020E-11   0.5002898378E-11   0.5020401966E-18  -0.4664554501E-16  -0.1050012961E-16
   0.1000803674E+01   0.9996498360E+00   0.9996498360E+00   0.1907348633E-03  -0.8724489948E-04  -0.8724489948E-04   0.6129394531E-03  -0.2629190550E-03  -0.2629190550E-03   0.3100392226E+00   0.5002726248E-11   0.5002703064E-11  -0.3107371283E-17  -0.5052991394E-16   0.6831665653E-17
   0.0000000000E+00   0.9996498360E+00   0.9996498360E+00   0.0000000000E+00  -0.8724489948E-04  -0.8724489948E-04   0.0000000000E+00  -0.2629190550E-03  -0.2629190550E-03   0.3100392226E+00   0.5002580797E-11   0.5002577470E-11   0.1103401148E-16   0.2248209479E-16   0.2476672810E-16
   0.2001607349E+01   0.0000000000E+00   0.5618517588E-18   0.3814697266E-03   0.0000000000E+00   0.4983796157E-18   0.1225878906E-02   0.0000000000E+00   0.6347214318E-19   0.3100392226E+00   0.5002699824E-11   0.5002713734E-11   0.9688308980E-18   0.2834906269E-16  -0.2499524604E-16
   0.2001607349E+01   0.9996498360E+00   0.4047277493E-18   0.3814697266E-03  -0.8724489948E-04   0.3785204935E-18   0.1225878906E-02  -0.2629190550E-03   0.2620725580E-19   0.3100392226E+00   0.5002754829E-11   0.5002815401E-11  -0.1917233289E-16   0.7015456738E-16   0.2202891579E-16
   0.2001607349E+01   0.0000000000E+00   0.9996498360E+00   0.3814697266E-03   0.0000000000E+00  -0.8724489948E-04   0.1225878906E-02   0.0000000000E+00  -0.2629190550E-03   0.3100392226E+00   0.5002703440E-11   0.5002674479E-11   0.9137253921E-17   0.6023172958E-16  -0.7002847805E-17
   0.2001607349E+01   0.9996498360E+00   0.9996498360E+00   0.3814697266E-03  -0.8724489948E-04  -0.8724489948E-04   0.1225878906E-02  -0.2629190550E-03  -0.2629190550E-03   0.3100392225E+00   0.5002725051E-11   0.5002671876E-11  -0.1738560008E-16  -0.1551766308E-16   0.1491497494E-16
     1     2     3     4     5     6     7     8
     2     9    10     3     6    11    12     7
 VARIABLES = X,Y,Z,DU1,DU2,DU3,U1,U2,U3,S11,S22,S33,S12,S13,S23
 ZONE, T="0.2084D-01" F=FEPOINT, I=   12 J=    2 ET=BRICK
   0.0000000000E+00   0.0000000000E+00   0.0000000000E+00   0.0000000000E+00   0.0000000000E+00   0.0000000000E+00   0.0000000000E+00   0.0000000000E+00   0.0000000000E+00   0.3631466242E+00   0.4236977545E-11   0.4236914026E-11   0.4935440287E-17   0.1648749688E-16  -0.1957613423E-16
   0.1001042093E+01   0.0000000000E+00  -0.3495083722E-19   0.2384185791E-03   0.0000000000E+00  -0.1934769092E-18   0.8036743164E-03   0.0000000000E+00   0.1585260720E-18   0.3631466241E+00   0.4237703835E-11   0.4237715181E-11  -0.1620668213E-16  -0.2603301525E-16  -0.6606960197E-17
   0.1001042093E+01   0.9995394780E+00  -0.9362697551E-19   0.2384185791E-03  -0.1103580560E-03  -0.1580794546E-18   0.8036743164E-03  -0.3501639545E-03   0.6445247912E-19   0.3631466241E+00   0.4237616500E-11   0.4237621766E-11  -0.9809924219E-17   0.3505422534E-16   0.1461025370E-16
   0.0000000000E+00   0.9995394780E+00  -0.9138810078E-19   0.0000000000E+00  -0.1103580560E-03   0.1805137169E-18   0.0000000000E+00  -0.3501639545E-03  -0.2719018177E-18   0.3631466241E+00   0.4238334316E-11   0.4238347182E-11   0.7596627645E-17  -0.1319047903E-16   0.8415677346E-17
   0.0000000000E+00   0.0000000000E+00   0.9995394780E+00   0.0000000000E+00   0.0000000000E+00  -0.1103580560E-03   0.0000000000E+00   0.0000000000E+00  -0.3501639545E-03   0.3631466241E+00   0.4238007205E-11   0.4238028377E-11   0.1440167138E-17  -0.8912411778E-17   0.1660272564E-16
   0.1001042093E+01   0.0000000000E+00   0.9995394780E+00   0.2384185791E-03   0.0000000000E+00  -0.1103580560E-03   0.8036743164E-03   0.0000000000E+00  -0.3501639545E-03   0.3631466241E+00   0.4237723303E-11   0.4237711958E-11   0.1116528467E-16   0.1259370576E-16  -0.1090511081E-16
   0.1001042093E+01   0.9995394780E+00   0.9995394780E+00   0.2384185791E-03  -0.1103580560E-03  -0.1103580560E-03   0.8036743164E-03  -0.3501639545E-03  -0.3501639545E-03   0.3631466241E+00   0.4237894534E-11   0.4237866574E-11   0.6000581291E-17   0.5192409355E-17  -0.1013171536E-16
   0.0000000000E+00   0.9995394780E+00   0.9995394780E+00   0.0000000000E+00  -0.1103580560E-03  -0.1103580560E-03   0.0000000000E+00  -0.3501639545E-03  -0.3501639545E-03   0.3631466241E+00   0.4237456528E-11   0.4237466355E-11   0.9788696106E-18  -0.4416576954E-17   0.9028715426E-17
   0.2002084186E+01   0.0000000000E+00  -0.2206704398E-18   0.4768371582E-03   0.0000000000E+00  -0.7825221987E-18   0.1607348633E-02   0.0000000000E+00   0.5618517588E-18   0.3631466241E+00   0.4237831699E-11   0.4237793918E-11   0.3003865863E-16  -0.1766445799E-16   0.1169138241E-16
   0.2002084186E+01   0.9995394780E+00  -0.1352017612E-18   0.4768371582E-03  -0.1103580560E-03  -0.5399295105E-18   0.1607348633E-02  -0.3501639545E-03   0.4047277493E-18   0.3631466241E+00   0.4237329879E-11   0.4237339704E-11   0.1491122612E-16   0.4440548682E-16  -0.2778227379E-17
   0.2002084186E+01   0.0000000000E+00   0.9995394780E+00   0.4768371582E-03   0.0000000000E+00  -0.1103580560E-03   0.1607348633E-02   0.0000000000E+00  -0.3501639545E-03   0.3631466241E+00   0.4237304114E-11   0.4237429615E-11  -0.1804621537E-16   0.3328204576E-16  -0.1811588629E-17
   0.2002084186E+01   0.9995394780E+00   0.9995394780E+00   0.4768371582E-03  -0.1103580560E-03  -0.1103580560E-03   0.1607348633E-02  -0.3501639545E-03  -0.3501639545E-03   0.3631466240E+00   0.4237921340E-11   0.4237888825E-11   0.5329043612E-17  -0.6941673459E-16   0.1349886401E-16
     1     2     3     4     5     6     7     8
     2     9    10     3     6    11    12     7
 VARIABLES = X,Y,Z,DU1,DU2,DU3,U1,U2,U3,S11,S22,S33,S12,S13,S23
 ZONE, T="0.2680D-01" F=FEPOINT, I=   12 J=    2 ET=BRICK
   0.0000000000E+00   0.0000000000E+00   0.0000000000E+00   0.0000000000E+00   0.0000000000E+00   0.0000000000E+00   0.0000000000E+00   0.0000000000E+00   0.0000000000E+00   0.4208938469E+00   0.3713670947E-11   0.3713635214E-11   0.4098381017E-17   0.1245906528E-16   0.8075347857E-17
   0.1001340116E+01   0.0000000000E+00   0.1566035538E-18   0.2980232239E-03   0.0000000000E+00   0.1915543911E-18   0.1042092896E-02   0.0000000000E+00  -0.3495083722E-19   0.4208938469E+00   0.3713688818E-11   0.3713706621E-11  -0.8236361620E-17   0.1559455579E-17  -0.5304692431E-17
   0.1001340116E+01   0.9994000909E+00   0.8216720987E-19   0.2980232239E-03  -0.1393870748E-03   0.1757941854E-18   0.1042092896E-02  -0.4605220105E-03  -0.9362697551E-19   0.4208938469E+00   0.3713920109E-11   0.3713861142E-11  -0.2214518167E-17  -0.3788941800E-16  -0.9468145317E-17
   0.0000000000E+00   0.9994000909E+00  -0.1798266810E-19   0.0000000000E+00  -0.1393870748E-03   0.7340543267E-19   0.0000000000E+00  -0.4605220105E-03  -0.9138810078E-19   0.4208938469E+00   0.3713151532E-11   0.3713232945E-11   0.4691032694E-17   0.2308726502E-16  -0.1765345024E-16
   0.0000000000E+00   0.0000000000E+00   0.9994000909E+00   0.0000000000E+00   0.0000000000E+00  -0.1393870748E-03   0.0000000000E+00   0.0000000000E+00  -0.4605220105E-03   0.4208938469E+00   0.3713944090E-11   0.3714010594E-11   0.2542148923E-17   0.3781170849E-19  -0.1414271077E-16
   0.1001340116E+01   0.0000000000E+00   0.9994000909E+00   0.2980232239E-03   0.0000000000E+00  -0.1393870748E-03   0.1042092896E-02   0.0000000000E+00  -0.4605220105E-03   0.4208938469E+00   0.3714388316E-11   0.3714384999E-11  -0.1591169088E-16   0.1848625337E-16  -0.7799301510E-17
   0.1001340116E+01   0.9994000909E+00   0.9994000909E+00   0.2980232239E-03  -0.1393870748E-03  -0.1393870748E-03   0.1042092896E-02  -0.4605220105E-03  -0.4605220105E-03   0.4208938468E+00   0.3714064616E-11   0.3714145518E-11   0.3747182317E-17  -0.3933667821E-16   0.7362374369E-17
   0.0000000000E+00   0.9994000909E+00   0.9994000909E+00   0.0000000000E+00  -0.1393870748E-03  -0.1393870748E-03   0.0000000000E+00  -0.4605220105E-03  -0.4605220105E-03   0.4208938469E+00   0.3714676253E-11   0.3714573708E-11  -0.7014463163E-17   0.2421839021E-16   0.2315575435E-16
   0.2002680232E+01   0.0000000000E+00   0.2687891113E-18   0.5960464478E-03   0.0000000000E+00   0.4894595511E-18   0.2084185791E-02   0.0000000000E+00  -0.2206704398E-18   0.4208938469E+00   0.3713572578E-11   0.3713505285E-11   0.1371305171E-16  -0.5183867819E-17   0.1638239773E-17
   0.2002680232E+01   0.9994000909E+00   0.2755111492E-18   0.5960464478E-03  -0.1393870748E-03   0.4107129105E-18   0.2084185791E-02  -0.4605220105E-03  -0.1352017612E-18   0.4208938469E+00   0.3714279213E-11   0.3714333793E-11  -0.1232420130E-16   0.6775620687E-16   0.1661866208E-16
   0.2002680232E+01   0.0000000000E+00   0.9994000909E+00   0.5960464478E-03   0.0000000000E+00  -0.1393870748E-03   0.2084185791E-02   0.0000000000E+00  -0.4605220105E-03   0.4208938469E+00   0.3714634774E-11   0.3714674439E-11   0.1976536612E-16   0.6462981713E-16   0.3493598300E-17
   0.2002680232E+01   0.9994000909E+00   0.9994000909E+00   0.5960464478E-03  -0.1393870748E-03  -0.1393870748E-03   0.2084185791E-02  -0.4605220105E-03  -0.4605220105E-03   0.4208938468E+00   0.3714294609E-11   0.3714208704E-11   0.3115143635E-16   0.8492069971E-17   0.5555535230E-17
     1     2     3     4     5     6     7     8
     2     9    10     3     6    11    12     7
