VARIABLES = TIME,e11,e22,e33,e12,e13,e23,s11,s22,s33,s12,s13,s23
  0.10000D-02  0.50000D-04 -0.18531D-04 -0.18531D-04 -0.20249D-20 -0.97939D-21 -0.44997D-21  0.38814D-01  0.51202D-14  0.51197D-14 -0.57343D-18 -0.27735D-18 -0.12743D-18
VARIABLES = TIME,e11,e22,e33,e12,e13,e23,s11,s22,s33,s12,s13,s23
  0.20000D-02  0.10000D-03 -0.38354D-04 -0.38354D-04 -0.32691D-20  0.14295D-20 -0.86037D-21  0.69879D-01  0.23207D-14  0.23207D-14 -0.82557D-18  0.36100D-18 -0.21728D-18
VARIABLES = TIME,e11,e22,e33,e12,e13,e23,s11,s22,s33,s12,s13,s23
  0.32500D-02  0.16250D-03 -0.64142D-04 -0.64142D-04  0.81262D-20 -0.26999D-20  0.26444D-22  0.10265D+00  0.24753D-10  0.24753D-10  0.18403D-17 -0.61142D-18  0.59885D-20
VARIABLES = TIME,e11,e22,e33,e12,e13,e23,s11,s22,s33,s12,s13,s23
  0.48125D-02  0.24063D-03 -0.97361D-04 -0.97361D-04  0.27396D-19 -0.38117D-20  0.18264D-19  0.13771D+00  0.15432D-10  0.15432D-10  0.55810D-17 -0.77650D-18  0.37207D-17
VARIABLES = TIME,e11,e22,e33,e12,e13,e23,s11,s22,s33,s12,s13,s23
  0.67656D-02  0.33828D-03 -0.13988D-03 -0.13988D-03 -0.30438D-20  0.17152D-19 -0.93438D-20  0.17554D+00  0.10622D-10  0.10622D-10 -0.55871D-18  0.31484D-17 -0.17151D-17
VARIABLES = TIME,e11,e22,e33,e12,e13,e23,s11,s22,s33,s12,s13,s23
  0.92070D-02  0.46035D-03 -0.19408D-03 -0.19408D-03  0.38911D-19  0.86295D-20  0.28799D-19  0.21660D+00  0.78530D-11  0.78530D-11  0.64393D-17  0.14281D-17  0.47659D-17
VARIABLES = TIME,e11,e22,e33,e12,e13,e23,s11,s22,s33,s12,s13,s23
  0.12259D-01  0.61294D-03 -0.26292D-03 -0.26292D-03 -0.66597D-19 -0.52423D-20 -0.11910D-19  0.26130D+00  0.61316D-11  0.61316D-11 -0.99343D-17 -0.78199D-18 -0.17766D-17
VARIABLES = TIME,e11,e22,e33,e12,e13,e23,s11,s22,s33,s12,s13,s23
  0.16073D-01  0.80367D-03 -0.35016D-03 -0.35016D-03  0.10725D-18  0.24882D-19 -0.96352D-20  0.31004D+00  0.50027D-11  0.50027D-11  0.14410D-16  0.33429D-17 -0.12945D-17
VARIABLES = TIME,e11,e22,e33,e12,e13,e23,s11,s22,s33,s12,s13,s23
  0.20842D-01  0.10421D-02 -0.46052D-03 -0.46052D-03 -0.66597D-19 -0.15987D-19 -0.67774D-20  0.36315D+00  0.42378D-11  0.42378D-11 -0.80475D-17 -0.19318D-17 -0.81897D-18
VARIABLES = TIME,e11,e22,e33,e12,e13,e23,s11,s22,s33,s12,s13,s23
  0.26802D-01  0.13401D-02 -0.59991D-03 -0.59991D-03 -0.35361D-19  0.66812D-19 -0.31660D-19  0.42089D+00  0.37141D-11  0.37141D-11 -0.38358D-17  0.72475D-17 -0.34344D-17
VARIABLES = TIME,e11,e22,e33,e12,e13,e23,s11,s22,s33,s12,s13,s23
  0.34253D-01  0.17126D-02 -0.77575D-03 -0.77575D-03 -0.54207D-19 -0.35788D-19  0.78775D-19  0.48343D+00  0.33647D-11  0.33647D-11 -0.52655D-17 -0.34763D-17  0.76519D-17
VARIABLES = TIME,e11,e22,e33,e12,e13,e23,s11,s22,s33,s12,s13,s23
  0.43566D-01  0.21783D-02 -0.99737D-03 -0.99737D-03  0.65437D-19  0.10652D-18  0.62041D-19  0.55070D+00  0.31558D-11  0.31558D-11  0.56738D-17  0.92358D-17  0.53793D-17
VARIABLES = TIME,e11,e22,e33,e12,e13,e23,s11,s22,s33,s12,s13,s23
  0.55208D-01  0.27604D-02 -0.12765D-02 -0.12765D-02 -0.15882D-18 -0.37490D-19 -0.62680D-21  0.62235D+00  0.30757D-11  0.30757D-11 -0.12242D-16 -0.28899D-17 -0.48316D-19
VARIABLES = TIME,e11,e22,e33,e12,e13,e23,s11,s22,s33,s12,s13,s23
  0.69760D-01  0.34880D-02 -0.16277D-02 -0.16277D-02  0.79196D-19 -0.65650D-19 -0.91898D-19  0.69754D+00  0.31395D-11  0.31395D-11  0.53993D-17 -0.44758D-17 -0.62653D-17
VARIABLES = TIME,e11,e22,e33,e12,e13,e23,s11,s22,s33,s12,s13,s23
  0.87949D-01  0.43975D-02 -0.20696D-02 -0.20696D-02  0.18621D-19  0.76159D-20 -0.68179D-19  0.77464D+00  0.33926D-11  0.33926D-11  0.11152D-17  0.45612D-18 -0.40833D-17
VARIABLES = TIME,e11,e22,e33,e12,e13,e23,s11,s22,s33,s12,s13,s23
  0.11069D+00  0.55343D-02 -0.26254D-02 -0.26254D-02  0.14484D-18 -0.98244D-19  0.12238D-18  0.85080D+00  0.39558D-11  0.39558D-11  0.75513D-17 -0.51219D-17  0.63804D-17
VARIABLES = TIME,e11,e22,e33,e12,e13,e23,s11,s22,s33,s12,s13,s23
  0.13911D+00  0.69554D-02 -0.33242D-02 -0.33242D-02 -0.39385D-18  0.55047D-19  0.15841D-18  0.92117D+00  0.51209D-11  0.51209D-11 -0.17647D-16  0.24664D-17  0.70974D-17
VARIABLES = TIME,e11,e22,e33,e12,e13,e23,s11,s22,s33,s12,s13,s23
  0.17464D+00  0.87318D-02 -0.42030D-02 -0.42030D-02 -0.44211D-18  0.52504D-19 -0.17776D-19  0.97747D+00  0.77301D-11  0.77301D-11 -0.16705D-16  0.19839D-17 -0.67167D-18
VARIABLES = TIME,e11,e22,e33,e12,e13,e23,s11,s22,s33,s12,s13,s23
  0.21904D+00  0.10952D-01 -0.53081D-02 -0.53081D-02  0.18467D-18 -0.51029D-20 -0.15414D-18  0.10081D+01  0.22656D-06  0.22656D-06  0.57247D-17 -0.15818D-18 -0.47781D-17
VARIABLES = TIME,e11,e22,e33,e12,e13,e23,s11,s22,s33,s12,s13,s23
  0.26345D+00  0.13173D-01 -0.64152D-02 -0.64152D-02 -0.91732D-18  0.97408D-19  0.43538D-18  0.10270D+01  0.83012D-07  0.83012D-07 -0.24049D-16  0.25537D-17  0.11414D-16
VARIABLES = TIME,e11,e22,e33,e12,e13,e23,s11,s22,s33,s12,s13,s23
  0.31896D+00  0.15948D-01 -0.77996D-02 -0.77996D-02  0.32694D-18 -0.38993D-19 -0.19309D-18  0.10470D+01  0.10108D-06  0.10108D-06  0.72071D-17 -0.85959D-18 -0.42566D-17
VARIABLES = TIME,e11,e22,e33,e12,e13,e23,s11,s22,s33,s12,s13,s23
  0.37448D+00  0.18724D-01 -0.91846D-02 -0.91846D-02 -0.11689D-17 -0.42517D-18 -0.36087D-18  0.10641D+01  0.11043D-07  0.11043D-07 -0.22282D-16 -0.81052D-17 -0.68795D-17
VARIABLES = TIME,e11,e22,e33,e12,e13,e23,s11,s22,s33,s12,s13,s23
  0.44386D+00  0.22193D-01 -0.10916D-01 -0.10916D-01  0.73015D-18 -0.69451D-18 -0.12203D-18  0.10824D+01  0.51494D-07  0.51494D-07  0.11935D-16 -0.11352D-16 -0.19947D-17
VARIABLES = TIME,e11,e22,e33,e12,e13,e23,s11,s22,s33,s12,s13,s23
  0.51325D+00  0.25663D-01 -0.12648D-01 -0.12648D-01 -0.10097D-17 -0.20162D-18  0.25583D-18  0.10983D+01  0.51859D-08  0.51859D-08 -0.14473D-16 -0.28900D-17  0.36670D-17
VARIABLES = TIME,e11,e22,e33,e12,e13,e23,s11,s22,s33,s12,s13,s23
  0.59999D+00  0.29999D-01 -0.14814D-01 -0.14814D-01 -0.17781D-18  0.80634D-18  0.53028D-18  0.11157D+01  0.28425D-07  0.28425D-07 -0.22133D-17  0.10037D-16  0.66008D-17
VARIABLES = TIME,e11,e22,e33,e12,e13,e23,s11,s22,s33,s12,s13,s23
  0.68673D+00  0.34336D-01 -0.16980D-01 -0.16980D-01  0.28624D-18  0.33883D-19  0.45570D-18  0.11309D+01  0.26939D-08  0.26939D-08  0.31540D-17  0.37335D-18  0.50213D-17
VARIABLES = TIME,e11,e22,e33,e12,e13,e23,s11,s22,s33,s12,s13,s23
  0.79515D+00  0.39757D-01 -0.19687D-01 -0.19687D-01 -0.13010D-17  0.45229D-18  0.14366D-17  0.11476D+01  0.16569D-07  0.16569D-07 -0.12558D-16  0.43659D-17  0.13867D-16
VARIABLES = TIME,e11,e22,e33,e12,e13,e23,s11,s22,s33,s12,s13,s23
  0.90357D+00  0.45178D-01 -0.22395D-01 -0.22395D-01 -0.27342D-17  0.90288D-18 -0.28624D-18  0.11624D+01  0.14995D-08  0.14995D-08 -0.23517D-16  0.77659D-17 -0.24620D-17
VARIABLES = TIME,e11,e22,e33,e12,e13,e23,s11,s22,s33,s12,s13,s23
  0.10391D+01  0.46091D-01 -0.22851D-01 -0.22851D-01 -0.22396D-17  0.73779D-18  0.39704D-17  0.11648D+01 -0.40998D-07 -0.40998D-07 -0.18918D-16  0.62324D-17  0.33540D-16
VARIABLES = TIME,e11,e22,e33,e12,e13,e23,s11,s22,s33,s12,s13,s23
  0.11746D+01  0.32538D-01 -0.16082D-01 -0.16082D-01 -0.33407D-17 -0.10840D-18  0.21413D-17  0.11248D+01 -0.25655D-06 -0.25655D-06 -0.38642D-16 -0.12539D-17  0.24769D-16
