VARIABLES = TIME,e11,e22,e33,e12,e13,e23,s11,s22,s33,s12,s13,s23
  0.10000D-02  0.50000D-04 -0.18531D-04 -0.18531D-04 -0.20249D-20 -0.97939D-21 -0.44997D-21  0.38814D-01  0.51202D-14  0.51197D-14 -0.57343D-18 -0.27735D-18 -0.12743D-18
VARIABLES = TIME,e11,e22,e33,e12,e13,e23,s11,s22,s33,s12,s13,s23
  0.20000D-02  0.10000D-03 -0.38354D-04 -0.38354D-04 -0.32691D-20  0.14295D-20 -0.86037D-21  0.69879D-01  0.23207D-14  0.23207D-14 -0.82557D-18  0.36100D-18 -0.21728D-18
VARIABLES = TIME,e11,e22,e33,e12,e13,e23,s11,s22,s33,s12,s13,s23
  0.32500D-02  0.16250D-03 -0.64142D-04 -0.64142D-04  0.81262D-20 -0.26999D-20  0.26444D-22  0.10265D+00  0.24753D-10  0.24753D-10  0.18403D-17 -0.61142D-18  0.59885D-20
VARIABLES = TIME,e11,e22,e33,e12,e13,e23,s11,s22,s33,s12,s13,s23
  0.48125D-02  0.24063D-03 -0.97361D-04 -0.97361D-04  0.27396D-19 -0.38117D-20  0.18264D-19  0.13771D+00  0.15432D-10  0.15432D-10  0.55810D-17 -0.77650D-18  0.37207D-17
VARIABLES = TIME,e11,e22,e33,e12,e13,e23,s11,s22,s33,s12,s13,s23
  0.67656D-02  0.33828D-03 -0.13988D-03 -0.13988D-03 -0.30438D-20  0.17152D-19 -0.93438D-20  0.17554D+00  0.10622D-10  0.10622D-10 -0.55871D-18  0.31484D-17 -0.17151D-17
VARIABLES = TIME,e11,e22,e33,e12,e13,e23,s11,s22,s33,s12,s13,s23
  0.92070D-02  0.46035D-03 -0.19408D-03 -0.19408D-03  0.38911D-19  0.86295D-20  0.28799D-19  0.21660D+00  0.78530D-11  0.78530D-11  0.64393D-17  0.14281D-17  0.47659D-17
VARIABLES = TIME,e11,e22,e33,e12,e13,e23,s11,s22,s33,s12,s13,s23
  0.12259D-01  0.61294D-03 -0.26292D-03 -0.26292D-03 -0.66597D-19 -0.52423D-20 -0.11910D-19  0.26130D+00  0.61316D-11  0.61316D-11 -0.99343D-17 -0.78199D-18 -0.17766D-17
VARIABLES = TIME,e11,e22,e33,e12,e13,e23,s11,s22,s33,s12,s13,s23
  0.16073D-01  0.80367D-03 -0.35016D-03 -0.35016D-03  0.10725D-18  0.24882D-19 -0.96352D-20  0.31004D+00  0.50027D-11  0.50027D-11  0.14410D-16  0.33429D-17 -0.12945D-17
VARIABLES = TIME,e11,e22,e33,e12,e13,e23,s11,s22,s33,s12,s13,s23
  0.20842D-01  0.10421D-02 -0.46052D-03 -0.46052D-03 -0.66597D-19 -0.15987D-19 -0.67774D-20  0.36315D+00  0.42378D-11  0.42378D-11 -0.80475D-17 -0.19318D-17 -0.81897D-18
VARIABLES = TIME,e11,e22,e33,e12,e13,e23,s11,s22,s33,s12,s13,s23
  0.26802D-01  0.13401D-02 -0.59991D-03 -0.59991D-03 -0.35361D-19  0.66812D-19 -0.31660D-19  0.42089D+00  0.37141D-11  0.37141D-11 -0.38358D-17  0.72475D-17 -0.34344D-17
